Zr4 W8 O32
1.0
9.147119 0.000000 0.000000
0.000000 9.147119 0.000000
0.000000 0.000000 9.147119
O W Zr
32 8 4
direct
0.055437 0.297140 0.057472 O
0.444563 0.702860 0.557472 O
0.944563 0.797140 0.442528 O
0.555437 0.202860 0.942528 O
0.057472 0.055437 0.297140 O
0.557472 0.444563 0.702860 O
0.442528 0.944563 0.797140 O
0.942528 0.555437 0.202860 O
0.297140 0.057472 0.055437 O
0.702860 0.557472 0.444563 O
0.797140 0.442528 0.944563 O
0.202860 0.942528 0.555437 O
0.049602 0.217288 0.564745 O
0.450398 0.782712 0.064745 O
0.950398 0.717288 0.935255 O
0.549602 0.282712 0.435255 O
0.564745 0.049602 0.217288 O
0.064745 0.450398 0.782712 O
0.935255 0.950398 0.717288 O
0.435255 0.549602 0.282712 O
0.217288 0.564745 0.049602 O
0.782712 0.064745 0.450398 O
0.717288 0.935255 0.950398 O
0.282712 0.435255 0.549602 O
0.017498 0.017498 0.017498 O
0.482502 0.982502 0.517498 O
0.982502 0.517498 0.482502 O
0.517498 0.482502 0.982502 O
0.267796 0.267796 0.267796 O
0.232204 0.732204 0.767796 O
0.732204 0.767796 0.232204 O
0.767796 0.232204 0.732204 O
0.157643 0.157643 0.157643 W
0.342357 0.842357 0.657643 W
0.842357 0.657643 0.342357 W
0.657643 0.342357 0.842357 W
0.906107 0.906107 0.906107 W
0.593893 0.093893 0.406107 W
0.093893 0.406107 0.593893 W
0.406107 0.593893 0.093893 W
0.496079 0.496079 0.496079 Zr
0.003921 0.503921 0.996079 Zr
0.503921 0.996079 0.003921 Zr
0.996079 0.003921 0.503921 Zr
