Hf4 O8
1.0
5.182449 0.000000 -0.911764
0.000000 5.281041 0.000000
-0.025282 0.000000 5.471012
Hf O
4 8
direct
0.727023 0.451365 0.289004 Hf
0.272977 0.951365 0.210996 Hf
0.272977 0.548635 0.710996 Hf
0.727023 0.048635 0.789004 Hf
0.542744 0.741867 0.036024 O
0.457256 0.241867 0.463976 O
0.457256 0.258133 0.963976 O
0.542744 0.758133 0.536024 O
0.936787 0.323067 0.643337 O
0.063213 0.823067 0.856663 O
0.063213 0.676933 0.356663 O
0.936787 0.176933 0.143337 O
