Ti1
1.0
-1.662086 1.662086 1.662086
1.662086 -1.662086 1.662086
1.662086 1.662086 -1.662086
Ti
1
direct
0.000000 0.000000 0.000000 Ti
