Zr2 Si2 O8
1.0
6.594364 0.000000 0.000000
0.000000 6.594364 0.000000
3.297183 3.297183 2.977943
O Si Zr
8 2 2
direct
0.805487 0.871441 0.389027 O
0.805487 0.239532 0.389027 O
0.739532 0.305487 0.889027 O
0.371441 0.305487 0.889027 O
0.194513 0.760468 0.610973 O
0.194513 0.128559 0.610973 O
0.260468 0.694513 0.110973 O
0.628559 0.694513 0.110973 O
0.625000 0.875000 0.750000 Si
0.375000 0.125000 0.250000 Si
0.875000 0.625000 0.250000 Zr
0.125000 0.375000 0.750000 Zr
