Hf4 O8
1.0
4.907863 0.000000 -0.801107
0.000000 5.121193 0.000000
0.028623 0.000000 5.104351
Hf O
4 8
direct
0.721620 0.458529 0.291214 Hf
0.278380 0.958529 0.208786 Hf
0.278380 0.541471 0.708786 Hf
0.721620 0.041471 0.791214 Hf
0.556174 0.739702 0.014803 O
0.443826 0.239702 0.485197 O
0.443826 0.260298 0.985197 O
0.556174 0.760298 0.514803 O
0.918444 0.356902 0.676311 O
0.081556 0.856902 0.823689 O
0.081556 0.643098 0.323689 O
0.918444 0.143098 0.176311 O
