Zr2 Si2 O8
1.0
6.427563 0.000000 0.000000
0.000000 6.427563 0.000000
3.213783 3.213783 2.925542
O Si Zr
8 2 2
direct
0.804789 0.868614 0.390422 O
0.804789 0.240964 0.390422 O
0.740964 0.304789 0.890422 O
0.368614 0.304789 0.890422 O
0.195211 0.759036 0.609578 O
0.195211 0.131386 0.609578 O
0.259036 0.695211 0.109578 O
0.631386 0.695211 0.109578 O
0.625000 0.875000 0.750000 Si
0.375000 0.125000 0.250000 Si
0.875000 0.625000 0.250000 Zr
0.125000 0.375000 0.750000 Zr
