Pb1
1.0
0.000000 2.520103 2.520103
2.520103 0.000000 2.520103
2.520103 2.520103 0.000000
Pb
1
direct
0.000000 0.000000 0.000000 Pb
