Ti1
1.0
-1.608433 1.608433 1.608433
1.608433 -1.608433 1.608433
1.608433 1.608433 -1.608433
Ti
1
direct
0.000000 0.000000 0.000000 Ti
