Fe1
1.0
-1.537844 1.537844 1.537844
1.537844 -1.537844 1.537844
1.537844 1.537844 -1.537844
Fe
1
direct
0.000000 0.000000 0.000000 Fe
