ALGO = Normal
EDIFF = 5e-07
EDIFFG = -0.001
IBRION = 1
ICHARG = 2
ISIF = 4
ISMEAR = 1
ISPIN = 2
LDAU = True
LDAUJ = 0 0 0
LDAUL = 0 2 0
LDAUPRINT = 1
LDAUTYPE = 2
LDAUU = 0 3.25 0
LMAXMIX = 4
LORBIT = 11
LREAL = Auto
LCHARG = False
LWAVE = False
MAGMOM = 15*0.6 10*5.0 25*0.6
NCORE = 4
NELM = 100
NSW = 99
PREC = Accurate
SIGMA = 0.2
SYMPREC = 1e-08
