Si12 N16
1.0
6.544513 -3.778473 0.000000
0.000001 7.556948 0.000000
0.000000 0.000000 5.484951
N Si
16 12
direct
0.045494 0.388184 0.975264 N
0.611816 0.657310 0.975264 N
0.342690 0.954506 0.975264 N
0.388184 0.045494 0.475264 N
0.657310 0.611816 0.475264 N
0.954506 0.342690 0.475264 N
0.321205 0.318200 0.199521 N
0.681800 0.003005 0.199521 N
0.996995 0.678795 0.199521 N
0.318200 0.321205 0.699521 N
0.003005 0.681800 0.699521 N
0.678795 0.996995 0.699521 N
0.333333 0.666667 0.312766 N
0.666667 0.333333 0.812766 N
0.000000 0.000000 0.946217 N
0.000000 0.000000 0.446217 N
0.081790 0.510689 0.248198 Si
0.489311 0.571100 0.248198 Si
0.428900 0.918210 0.248198 Si
0.510689 0.081790 0.748198 Si
0.571100 0.489311 0.748198 Si
0.918210 0.428900 0.748198 Si
0.169097 0.253826 0.949055 Si
0.746174 0.915270 0.949055 Si
0.084730 0.830903 0.949055 Si
0.253826 0.169097 0.449055 Si
0.915270 0.746174 0.449055 Si
0.830903 0.084730 0.449055 Si
