Ti3
1.0
4.727996 0.000000 0.000000
-2.363997 4.094564 0.000000
0.000000 0.000000 2.915795
Ti
3
direct
0.000000 0.000000 0.000000 Ti
0.666667 0.333333 0.500000 Ti
0.333333 0.666667 0.500000 Ti
