Hf4 O8
1.0
4.935724 0.000000 -0.775227
0.000000 5.179277 0.000000
0.057377 0.000000 5.112016
Hf O
4 8
direct
0.722572 0.459793 0.290159 Hf
0.277428 0.959793 0.209841 Hf
0.277428 0.540207 0.709841 Hf
0.722572 0.040207 0.790159 Hf
0.557313 0.738661 0.013261 O
0.442687 0.238661 0.486739 O
0.442687 0.261339 0.986739 O
0.557313 0.761339 0.513261 O
0.913578 0.364954 0.683832 O
0.086422 0.864954 0.816168 O
0.086422 0.635046 0.316168 O
0.913578 0.135046 0.183832 O
