Fe1
1.0
-1.373473 1.373473 1.373473
1.373473 -1.373473 1.373473
1.373473 1.373473 -1.373473
Fe
1
direct
0.000000 0.000000 0.000000 Fe
