Ta1
1.0
-1.740124 1.740124 1.740124
1.740124 -1.740124 1.740124
1.740124 1.740124 -1.740124
Ta
1
direct
0.000000 0.000000 0.000000 Ta
