Al1
1.0
0.000000 2.182561 2.182561
2.182561 0.000000 2.182561
2.182561 2.182561 0.000000
Al
1
direct
0.000000 0.000000 0.000000 Al
