Hg2
1.0
3.703135 0.000000 0.000000
-1.851567 3.207008 0.000000
0.000000 0.000000 5.848243
Hg
2
direct
0.666667 0.333333 0.750000 Hg
0.333333 0.666667 0.250000 Hg
