Ba1 Ti1 O3
1.0
2.818504 1.627248 2.305286
-2.818504 1.627248 2.305286
0.000000 -3.254556 2.305260
Ba Ti O
1 1 3
direct
0.003213 0.003213 0.003212 Ba
0.492821 0.492821 0.492817 Ti
0.512614 0.017229 0.512615 O
0.512613 0.512613 0.017231 O
0.017229 0.512614 0.512615 O
