C2
1.0
0.000000 1.766808 1.766808
1.766808 0.000000 1.766808
1.766808 1.766808 0.000000
C
2
direct
0.000000 0.000000 0.000000 C
0.250000 0.250000 0.250000 C
