Cu8 W8
1.0
0.000000 3.201174 3.201174
-6.047686 0.000000 0.000000
0.000000 -6.379496 6.379496
Cu W
8 8
direct
0.500000 0.250000 0.000000 Cu
0.500000 0.500000 0.250000 Cu
0.500000 0.750000 0.500000 Cu
0.500000 0.000000 0.250000 Cu
0.000000 0.250000 0.250000 Cu
0.000000 0.500000 0.000000 Cu
0.000000 0.750000 0.750000 Cu
0.000000 0.000000 0.000000 Cu
0.500000 0.250000 0.500000 W
0.500000 0.500000 0.750000 W
0.500000 0.750000 0.000000 W
0.500000 0.000000 0.750000 W
0.000000 0.250000 0.750000 W
0.000000 0.500000 0.500000 W
0.000000 0.750000 0.250000 W
0.000000 0.000000 0.500000 W
