Mg2 Al4 O8
1.0
0.000000 4.036322 4.036322
4.036322 0.000000 4.036322
4.036322 4.036322 0.000000
Mg Al O
2 4 8
direct
0.375000 0.375000 0.375000 Mg
0.625000 0.625000 0.625000 Mg
0.000000 0.000000 0.000000 Al
0.500000 0.000000 0.000000 Al
0.000000 0.500000 0.000000 Al
0.000000 0.000000 0.500000 Al
0.763068 0.763068 0.763068 O
0.210796 0.763068 0.763068 O
0.763068 0.210796 0.763068 O
0.763068 0.763068 0.210796 O
0.236932 0.236932 0.236932 O
0.789204 0.236932 0.236932 O
0.236932 0.789204 0.236932 O
0.236932 0.236932 0.789204 O
