Al4 O6
1.0
2.428402 1.402035 4.422044
-2.428402 1.402035 4.422044
0.000000 -2.804062 4.422042
Al O
4 6
direct
0.647776 0.647776 0.647776 Al
0.852224 0.852224 0.852224 Al
0.352224 0.352224 0.352224 Al
0.147776 0.147776 0.147776 Al
0.944312 0.555688 0.250000 O
0.250000 0.944312 0.555688 O
0.555688 0.250000 0.944312 O
0.055688 0.444312 0.750000 O
0.750000 0.055688 0.444312 O
0.444312 0.750000 0.055688 O
