Si1 C1
1.0
0.000000 2.114209 2.114209
2.114209 0.000000 2.114209
2.114209 2.114209 0.000000
Si C
1 1
direct
0.000000 0.000000 0.000000 Si
0.250000 0.250000 0.250000 C
