Hg2
1.0
3.500585 0.000000 0.000000
-1.750292 3.031595 0.000000
0.000000 0.000000 5.552996
Hg
2
direct
0.666667 0.333333 0.750000 Hg
0.333333 0.666667 0.250000 Hg
