Ti2
1.0
2.830341 0.000000 0.000000
-1.415170 2.451146 0.000000
0.000000 0.000000 4.500660
Ti
2
direct
0.666667 0.333333 0.750000 Ti
0.333333 0.666667 0.250000 Ti
