Mg2 Al4 O8
1.0
0.000000 4.170964 4.170964
4.170964 0.000000 4.170964
4.170964 4.170964 0.000000
Mg Al O
2 4 8
direct
0.375000 0.375000 0.375000 Mg
0.625000 0.625000 0.625000 Mg
0.000000 0.000000 0.000000 Al
0.500000 0.000000 0.000000 Al
0.000000 0.500000 0.000000 Al
0.000000 0.000000 0.500000 Al
0.764148 0.764148 0.764148 O
0.207556 0.764148 0.764148 O
0.764148 0.207556 0.764148 O
0.764148 0.764148 0.207556 O
0.235852 0.235852 0.235852 O
0.792444 0.235852 0.235852 O
0.235852 0.792444 0.235852 O
0.235852 0.235852 0.792444 O
