Ti2
1.0
3.004123 0.000000 0.000000
-1.502062 2.601646 0.000000
0.000000 0.000000 4.734828
Ti
2
direct
0.666667 0.333333 0.750000 Ti
0.333333 0.666667 0.250000 Ti
