Cu1
1.0
0.000000 1.777325 1.777325
1.777325 0.000000 1.777325
1.777325 1.777325 0.000000
Cu
1
direct
0.000000 0.000000 0.000000 Cu
