W1
1.0
-1.593707 1.593707 1.593707
1.593707 -1.593707 1.593707
1.593707 1.593707 -1.593707
W
1
direct
0.000000 0.000000 0.000000 W
