Hf4 O8
1.0
5.005362 0.000000 -0.844270
0.000000 5.152294 0.000000
0.008953 0.000000 5.256013
Hf O
4 8
direct
0.722587 0.458049 0.291848 Hf
0.277413 0.958049 0.208152 Hf
0.277413 0.541951 0.708152 Hf
0.722587 0.041951 0.791848 Hf
0.554363 0.741927 0.019001 O
0.445637 0.241927 0.480999 O
0.445637 0.258073 0.980999 O
0.554363 0.758073 0.519001 O
0.930308 0.333683 0.656978 O
0.069692 0.833683 0.843022 O
0.069692 0.666317 0.343022 O
0.930308 0.166317 0.156978 O
