System = phonon of Zr bcc - omiga

NWRITE = 0

IBRION = 8

EDIFF=1.d-6

ISPIN = 2
PREC = A
MAGMOM=64*1
NEDOS=10001
ISMEAR = 1
NSW=1
