Ti3
1.0
4.467109 0.000000 0.000000
-2.233554 3.868629 0.000000
0.000000 0.000000 2.771419
Ti
3
direct
0.000000 0.000000 0.000000 Ti
0.666667 0.333333 0.500000 Ti
0.333333 0.666667 0.500000 Ti
