Ti1
1.0
-1.589728 1.589728 1.589728
1.589728 -1.589728 1.589728
1.589728 1.589728 -1.589728
Ti
1
direct
0.000000 0.000000 0.000000 Ti
