Mn4 Sb2                                 
   1.00000000000000     
     3.8897945808190131    0.0000000000000000    0.0000000000000000
     0.0000000000000000    3.8904751414197998    0.0000000000000000
     0.0000000000000000    0.0000000000000000    5.9254354425791345
   Mn   Sb
     4     2
Direct
  0.0000000000000000  0.0000000000000000  0.0001462073924470
  0.5000000000000000  0.0000000000000000  0.2376823473776960
  0.5000000000000000  0.5000000000000000 -0.0002050468170091
  0.0000000000000000  0.5000000000000000  0.7623311469791222
  0.5000000000000000  0.0000000000000000  0.6924959726877609
  0.0000000000000000  0.5000000000000000  0.3075493723799833
 
  0.00000000E+00  0.00000000E+00  0.00000000E+00
  0.00000000E+00  0.00000000E+00  0.00000000E+00
  0.00000000E+00  0.00000000E+00  0.00000000E+00
  0.00000000E+00  0.00000000E+00  0.00000000E+00
  0.00000000E+00  0.00000000E+00  0.00000000E+00
  0.00000000E+00  0.00000000E+00  0.00000000E+00
