Title: Tue Jun 13 09:49:32 EDT 2017 /storage/work/yuw3/SQS/bcc/VNb/SQS16/STR00000004
 1.00
    0.000000000000      3.300000000000      3.300000000000  
   -6.600000000000      0.000000000000      0.000000000000  
    0.000000000000     -6.600000000000      6.600000000000  
Cu W
8 8
Direct
0.5000000000 0.2500000000 0.0000000000 
0.5000000000 0.5000000000 0.2500000000 
0.5000000000 0.7500000000 0.5000000000 
0.5000000000 0.0000000000 0.2500000000 
0.0000000000 0.2500000000 0.2500000000 
0.0000000000 0.5000000000 0.0000000000 
0.0000000000 0.7500000000 0.7500000000 
0.0000000000 0.0000000000 0.0000000000 
0.5000000000 0.2500000000 0.5000000000 
0.5000000000 0.5000000000 0.7500000000 
0.5000000000 0.7500000000 0.0000000000 
0.5000000000 0.0000000000 0.7500000000 
0.0000000000 0.2500000000 0.7500000000 
0.0000000000 0.5000000000 0.5000000000 
0.0000000000 0.7500000000 0.2500000000 
0.0000000000 0.0000000000 0.5000000000
