Cu1
1.0
0.000000 1.818673 1.818673
1.818673 0.000000 1.818673
1.818673 1.818673 0.000000
Cu
1
direct
0.000000 0.000000 0.000000 Cu
