Ta1
1.0
-1.573333 1.573333 1.573333
1.573333 -1.573333 1.573333
1.573333 1.573333 -1.573333
Ta
1
direct
0.000000 0.000000 0.000000 Ta
