Os2
1.0
2.652682 0.000000 0.000000
-1.326341 2.297290 0.000000
0.000000 0.000000 4.212128
Os
2
direct
0.666667 0.333333 0.250000 Os
0.333333 0.666667 0.750000 Os
