Ti
3.251500
-.5 .5 .5
.5 -.5 .5
.5 .5 -.5
Ti
1
direct
0.000000 0.000000 0.000000
