Fe
2.856
-.5 .5 .5
.5 -.5 .5
.5 .5 -.5
Fe
1
direct
0.000000 0.000000 0.000000
