Hg2
1.0
3.582023 0.000000 0.000000
-1.791011 3.102122 0.000000
0.000000 0.000000 5.682182
Hg
2
direct
0.666667 0.333333 0.750000 Hg
0.333333 0.666667 0.250000 Hg
