Ti1 Pb1 O3
1.0
3.867492 0.000000 0.000000
0.000000 3.867492 0.000000
0.000000 0.000000 5.093460
Ti Pb O
1 1 3
direct
0.500000 0.500000 0.515366 Ti
0.000000 0.000000 0.934793 Pb
0.500000 0.500000 0.174384 O
0.000000 0.500000 0.630678 O
0.500000 0.000000 0.630678 O
