W2
3.187414
-.5 .5 .5
.5 -.5 .5
.5 .5 -.5
W
1
direct
0.000000 0.000000 0.000000 W
