Hf2
3.541628
-.5 .5 .5
.5 -.5 .5
.5 .5 -.5
Hf
1
direct
0.000000 0.000000 0.000000 Hf
