Ta1
1.0
-1.603597 1.603597 1.603597
1.603597 -1.603597 1.603597
1.603597 1.603597 -1.603597
Ta
1
direct
0.000000 0.000000 0.000000 Ta
