Hf1
1.0
-1.730554 1.730554 1.730554
1.730554 -1.730554 1.730554
1.730554 1.730554 -1.730554
Hf
1
direct
0.000000 0.000000 0.000000 Hf
