Zr4 W8 O32
1.0
9.549698 0.000000 0.000000
0.000000 9.549698 0.000000
0.000000 0.000000 9.549698
O W Zr
32 8 4
direct
0.058060 0.298042 0.060782 O
0.441940 0.701958 0.560782 O
0.941940 0.798042 0.439218 O
0.558060 0.201958 0.939218 O
0.060782 0.058060 0.298042 O
0.560782 0.441940 0.701958 O
0.439218 0.941940 0.798042 O
0.939218 0.558060 0.201958 O
0.298042 0.060782 0.058060 O
0.701958 0.560782 0.441940 O
0.798042 0.439218 0.941940 O
0.201958 0.939218 0.558060 O
0.054131 0.218016 0.564112 O
0.445869 0.781984 0.064112 O
0.945869 0.718016 0.935888 O
0.554131 0.281984 0.435888 O
0.564112 0.054131 0.218016 O
0.064112 0.445869 0.781984 O
0.935888 0.945869 0.718016 O
0.435888 0.554131 0.281984 O
0.218016 0.564112 0.054131 O
0.781984 0.064112 0.445869 O
0.718016 0.935888 0.945869 O
0.281984 0.435888 0.554131 O
0.009253 0.009253 0.009253 O
0.490747 0.990747 0.509253 O
0.990747 0.509253 0.490747 O
0.509253 0.490747 0.990747 O
0.256904 0.256904 0.256904 O
0.243096 0.743096 0.756904 O
0.743096 0.756904 0.243096 O
0.756904 0.243096 0.743096 O
0.152301 0.152301 0.152301 W
0.347699 0.847699 0.652301 W
0.847699 0.652301 0.347699 W
0.652301 0.347699 0.847699 W
0.901308 0.901308 0.901308 W
0.598692 0.098692 0.401308 W
0.098692 0.401308 0.598692 W
0.401308 0.598692 0.098692 W
0.499061 0.499061 0.499061 Zr
0.000939 0.500939 0.999061 Zr
0.500939 0.999061 0.000939 Zr
0.999061 0.000939 0.500939 Zr
