Cu1
1.0
0.000000 1.777195 1.777195
1.777195 0.000000 1.777195
1.777195 1.777195 0.000000
Cu
1
direct
0.000000 0.000000 0.000000 Cu
