Ti2
1.0
2.970265 0.000000 0.000000
-1.485133 2.572325 0.000000
0.000000 0.000000 4.692031
Ti
2
direct
0.666667 0.333333 0.750000 Ti
0.333333 0.666667 0.250000 Ti
