Pb1
1.0
0.000000 2.433133 2.433133
2.433133 0.000000 2.433133
2.433133 2.433133 0.000000
Pb
1
direct
0.000000 0.000000 0.000000 Pb
