Nb2
1.0
3.320520 0.000000 0.000000
0.000000 3.320520 0.000000
0.000000 0.000000 3.320520
Nb
2
direct
0.000000 0.000000 0.000000 Nb
0.500000 0.500000 0.500000 Nb
