Mn6 P24
1.0
5.090496 0.000000 -0.460003
-2.532782 5.276600 0.075695
0.000000 0.000000 16.351185
Mn P
6 24
direct
0.498880 0.817655 0.406303 Mn
0.129445 0.120466 0.924762 Mn
0.870555 0.879534 0.075238 Mn
0.501120 0.182345 0.593697 Mn
0.491083 0.449809 0.741172 Mn
0.508917 0.550191 0.258828 Mn
0.926256 0.758965 0.726450 P
0.655685 0.247780 0.230136 P
0.942979 0.472595 0.565507 P
0.382924 0.134861 0.451209 P
0.566008 0.429281 0.883537 P
0.629115 0.504742 0.390209 P
0.716776 0.173372 0.100159 P
0.943815 0.852284 0.219285 P
0.366048 0.858667 0.272285 P
0.308050 0.190910 0.056064 P
0.988510 0.428365 0.935002 P
0.617076 0.865139 0.548791 P
0.283224 0.826628 0.899841 P
0.011490 0.571635 0.064998 P
0.433992 0.570719 0.116463 P
0.952706 0.121299 0.400207 P
0.073744 0.241035 0.273550 P
0.691950 0.809090 0.943936 P
0.633952 0.141333 0.727715 P
0.344315 0.752220 0.769864 P
0.047294 0.878701 0.599793 P
0.056185 0.147716 0.780715 P
0.370885 0.495258 0.609791 P
0.057021 0.527405 0.434493 P
