Zr2
1.0
3.239232 0.000000 0.000000
-1.619616 2.805257 0.000000
0.000000 0.000000 5.172220
Zr
2
direct
0.666667 0.333333 0.750000 Zr
0.333333 0.666667 0.250000 Zr
