Ca4 Ti4 O12
1.0
5.407760 0.000000 0.000000
0.000000 5.507429 0.000000
0.000000 0.000000 7.694012
Ca Ti O
4 4 12
direct
0.509094 0.542875 0.750000 Ca
0.490906 0.457125 0.250000 Ca
0.990906 0.042875 0.750000 Ca
0.009094 0.957125 0.250000 Ca
0.000000 0.500000 0.500000 Ti
0.000000 0.500000 0.000000 Ti
0.500000 0.000000 0.500000 Ti
0.500000 0.000000 0.000000 Ti
0.078086 0.480194 0.750000 O
0.921914 0.519806 0.250000 O
0.421914 0.980194 0.750000 O
0.578086 0.019806 0.250000 O
0.790623 0.790038 0.958971 O
0.209377 0.209962 0.458971 O
0.209377 0.209962 0.041029 O
0.790623 0.790038 0.541029 O
0.709377 0.290038 0.958971 O
0.290623 0.709962 0.458971 O
0.290623 0.709962 0.041029 O
0.709377 0.290038 0.541029 O
