Hf4 O8
1.0
5.361438 0.000000 -1.585204
0.000000 5.511713 0.000000
-0.700930 0.000000 5.738484
Hf O
4 8
direct
0.749393 0.397435 0.250614 Hf
0.250607 0.897435 0.249386 Hf
0.250607 0.602565 0.749386 Hf
0.749393 0.102565 0.750614 Hf
0.471610 0.666196 0.140792 O
0.528390 0.166196 0.359208 O
0.528390 0.333804 0.859208 O
0.471610 0.833804 0.640792 O
0.968696 0.336400 0.642252 O
0.031304 0.836400 0.857748 O
0.031304 0.663600 0.357748 O
0.968696 0.163600 0.142252 O
