W1
1.0
-1.611222 1.611222 1.611222
1.611222 -1.611222 1.611222
1.611222 1.611222 -1.611222
W
1
direct
0.000000 0.000000 0.000000 W
