Al4 O6
1.0
2.377112 1.372426 4.317169
-2.377112 1.372426 4.317169
0.000000 -2.744855 4.317170
Al O
4 6
direct
0.647843 0.647843 0.647843 Al
0.852157 0.852157 0.852157 Al
0.352157 0.352157 0.352157 Al
0.147843 0.147843 0.147843 Al
0.943448 0.556552 0.250000 O
0.250000 0.943448 0.556552 O
0.556552 0.250000 0.943448 O
0.056552 0.443448 0.750000 O
0.750000 0.056552 0.443448 O
0.443448 0.750000 0.056552 O
