Hf2
1.0
3.124228 0.000000 0.000000
-1.562114 2.705661 0.000000
0.000000 0.000000 4.958428
Hf
2
direct
0.666667 0.333333 0.250000 Hf
0.333333 0.666667 0.750000 Hf
