Mg2 Al4 O8
1.0
0.000000 4.082193 4.082193
4.082193 0.000000 4.082193
4.082193 4.082193 0.000000
Mg Al O
2 4 8
direct
0.375000 0.375000 0.375000 Mg
0.625000 0.625000 0.625000 Mg
0.000000 0.000000 0.000000 Al
0.500000 0.000000 0.000000 Al
0.000000 0.500000 0.000000 Al
0.000000 0.000000 0.500000 Al
0.763433 0.763433 0.763433 O
0.209700 0.763433 0.763433 O
0.763433 0.209700 0.763433 O
0.763433 0.763433 0.209700 O
0.236567 0.236567 0.236567 O
0.790300 0.236567 0.236567 O
0.236567 0.790300 0.236567 O
0.236567 0.236567 0.790300 O
