Fe1
1.0
-1.482883 1.482883 1.482883
1.482883 -1.482883 1.482883
1.482883 1.482883 -1.482883
Fe
1
direct
0.000000 0.000000 0.000000 Fe
