Ti1 Pb1 O3
1.0
3.858717 0.000000 0.000000
0.000000 3.858717 0.000000
0.000000 0.000000 4.961603
Ti Pb O
1 1 3
direct
0.500000 0.500000 0.516118 Ti
0.000000 0.000000 0.944691 Pb
0.500000 0.500000 0.165076 O
0.000000 0.500000 0.630007 O
0.500000 0.000000 0.630007 O
