Ti3
1.0
4.678442 0.000000 0.000000
-2.339220 4.051649 0.000000
0.000000 0.000000 2.887651
Ti
3
direct
0.000000 0.000000 0.000000 Ti
0.666667 0.333333 0.500000 Ti
0.333333 0.666667 0.500000 Ti
