pymatgen v2020.8.3 with grid density = 8000 / number of atoms
0
Monkhorst
6 6 4
