Os2
1.0
2.813831 0.000000 0.000000
-1.406915 2.436849 0.000000
0.000000 0.000000 4.436722
Os
2
direct
0.666667 0.333333 0.250000 Os
0.333333 0.666667 0.750000 Os
