Mg2
1.0
3.264902 0.000000 0.000000
-1.632452 2.827488 0.000000
0.000000 0.000000 5.283060
Mg
2
direct
0.666667 0.333333 0.750000 Mg
0.333333 0.666667 0.250000 Mg
