Ti3
1.0
4.574362 0.000000 0.000000
-2.287180 3.961513 0.000000
0.000000 0.000000 2.831767
Ti
3
direct
0.000000 0.000000 0.000000 Ti
0.666667 0.333333 0.500000 Ti
0.333333 0.666667 0.500000 Ti
