W1
1.0
-1.628364 1.628364 1.628364
1.628364 -1.628364 1.628364
1.628364 1.628364 -1.628364
W
1
direct
0.000000 0.000000 0.000000 W
