Ti3
1.0
4.772057 0.000000 0.000000
-2.386028 4.132722 0.000000
0.000000 0.000000 2.947198
Ti
3
direct
0.000000 0.000000 0.000000 Ti
0.666667 0.333333 0.500000 Ti
0.333333 0.666667 0.500000 Ti
