Ta1
1.0
-1.688149 1.688149 1.688149
1.688149 -1.688149 1.688149
1.688149 1.688149 -1.688149
Ta
1
direct
0.000000 0.000000 0.000000 Ta
