Hf4 O8
1.0
5.257908 0.000000 -1.252823
0.000000 5.253019 0.000000
-0.356102 0.000000 5.670982
Hf O
4 8
direct
0.745735 0.421657 0.255075 Hf
0.254265 0.921657 0.244925 Hf
0.254265 0.578343 0.744925 Hf
0.745735 0.078343 0.755075 Hf
0.496457 0.717762 0.098440 O
0.503543 0.217762 0.401560 O
0.503543 0.282238 0.901560 O
0.496457 0.782238 0.598440 O
0.977667 0.296149 0.612676 O
0.022333 0.796149 0.887324 O
0.022333 0.703851 0.387324 O
0.977667 0.203851 0.112676 O
