Hf1
1.0
-1.770814 1.770814 1.770814
1.770814 -1.770814 1.770814
1.770814 1.770814 -1.770814
Hf
1
direct
0.000000 0.000000 0.000000 Hf
