Hf1
1.0
-1.790275 1.790275 1.790275
1.790275 -1.790275 1.790275
1.790275 1.790275 -1.790275
Hf
1
direct
0.000000 0.000000 0.000000 Hf
