Mg2
1.0
3.153279 0.000000 0.000000
-1.576640 2.730820 0.000000
0.000000 0.000000 5.132739
Mg
2
direct
0.666667 0.333333 0.750000 Mg
0.333333 0.666667 0.250000 Mg
