Cu8 W8
1.0
0.000000 3.009369 3.009369
-5.766902 0.000000 0.000000
0.000000 -6.004553 6.004553
Cu W
8 8
direct
0.500000 0.250000 0.000000 Cu
0.500000 0.500000 0.250000 Cu
0.500000 0.750000 0.500000 Cu
0.500000 0.000000 0.250000 Cu
0.000000 0.250000 0.250000 Cu
0.000000 0.500000 0.000000 Cu
0.000000 0.750000 0.750000 Cu
0.000000 0.000000 0.000000 Cu
0.500000 0.250000 0.500000 W
0.500000 0.500000 0.750000 W
0.500000 0.750000 0.000000 W
0.500000 0.000000 0.750000 W
0.000000 0.250000 0.750000 W
0.000000 0.500000 0.500000 W
0.000000 0.750000 0.250000 W
0.000000 0.000000 0.500000 W
