Ba1 Ti1 O3
1.0
2.785412 1.608142 2.276097
-2.785412 1.608142 2.276097
0.000000 -3.216333 2.276062
Ba Ti O
1 1 3
direct
0.005574 0.005574 0.005574 Ba
0.500092 0.500092 0.500090 Ti
0.510375 0.012073 0.510376 O
0.510375 0.510375 0.012074 O
0.012073 0.510375 0.510376 O
