Hf1
1.0
0.000000 2.313066 2.313066
2.313066 0.000000 2.313066
2.313066 2.313066 0.000000
Hf
1
direct
0.000000 0.000000 0.000000 Hf
