Ba1 Ti1 O3
1.0
2.930634 1.691986 2.436863
-2.930634 1.691986 2.436863
0.000000 -3.384032 2.436834
Ba Ti O
1 1 3
direct
0.993295 0.993295 0.993293 Ba
0.476699 0.476699 0.476698 Ti
0.517175 0.034147 0.517174 O
0.517175 0.517175 0.034149 O
0.034147 0.517175 0.517174 O
