Al4 O6
1.0
2.324140 1.341842 4.204749
-2.324140 1.341842 4.204749
0.000000 -2.683684 4.204749
Al O
4 6
direct
0.647854 0.647854 0.647854 Al
0.852146 0.852146 0.852146 Al
0.352146 0.352146 0.352146 Al
0.147854 0.147854 0.147854 Al
0.942959 0.557041 0.250000 O
0.250000 0.942959 0.557041 O
0.557041 0.250000 0.942959 O
0.057041 0.442959 0.750000 O
0.750000 0.057041 0.442959 O
0.442959 0.750000 0.057041 O
