Ti1
1.0
-1.570573 1.570573 1.570573
1.570573 -1.570573 1.570573
1.570573 1.570573 -1.570573
Ti
1
direct
0.000000 0.000000 0.000000 Ti
