Al1 Ni3
1.0
3.369889 0.000000 0.000000
0.000000 3.369889 0.000000
0.000000 0.000000 3.369889
Ni Al
3 1
direct
0.000000 0.500000 0.500000 Ni
0.500000 0.000000 0.500000 Ni
0.500000 0.500000 0.000000 Ni
0.000000 0.000000 0.000000 Al
