Ti3
1.0
4.410722 0.000000 0.000000
-2.205360 3.819797 0.000000
0.000000 0.000000 2.741207
Ti
3
direct
0.000000 0.000000 0.000000 Ti
0.666667 0.333333 0.500000 Ti
0.333333 0.666667 0.500000 Ti
