Ti1
1.0
-1.644589 1.644589 1.644589
1.644589 -1.644589 1.644589
1.644589 1.644589 -1.644589
Ti
1
direct
0.000000 0.000000 0.000000 Ti
