Cu8 W8
1.0
0.000000 3.087445 3.087445
-5.891470 0.000000 0.000000
0.000000 -6.153327 6.153327
Cu W
8 8
direct
0.500000 0.250000 0.000000 Cu
0.500000 0.500000 0.250000 Cu
0.500000 0.750000 0.500000 Cu
0.500000 0.000000 0.250000 Cu
0.000000 0.250000 0.250000 Cu
0.000000 0.500000 0.000000 Cu
0.000000 0.750000 0.750000 Cu
0.000000 0.000000 0.000000 Cu
0.500000 0.250000 0.500000 W
0.500000 0.500000 0.750000 W
0.500000 0.750000 0.000000 W
0.500000 0.000000 0.750000 W
0.000000 0.250000 0.750000 W
0.000000 0.500000 0.500000 W
0.000000 0.750000 0.250000 W
0.000000 0.000000 0.500000 W
