Ti1 Pb1 O3
1.0
3.891492 0.000000 0.000000
0.000000 3.891492 0.000000
0.000000 0.000000 4.268582
Ti Pb O
1 1 3
direct
0.500000 0.500000 0.533953 Ti
0.000000 0.000000 0.997351 Pb
0.500000 0.500000 0.116906 O
0.000000 0.500000 0.618845 O
0.500000 0.000000 0.618845 O
