Pb1
1.0
0.000000 2.574905 2.574905
2.574905 0.000000 2.574905
2.574905 2.574905 0.000000
Pb
1
direct
0.000000 0.000000 0.000000 Pb
