Zr4 W8 O32
1.0
9.040747 0.000000 0.000000
0.000000 9.040747 0.000000
0.000000 0.000000 9.040747
O W Zr
32 8 4
direct
0.051065 0.295171 0.058637 O
0.448935 0.704829 0.558637 O
0.948935 0.795171 0.441363 O
0.551065 0.204829 0.941363 O
0.058637 0.051065 0.295171 O
0.558637 0.448935 0.704829 O
0.441363 0.948935 0.795171 O
0.941363 0.551065 0.204829 O
0.295171 0.058637 0.051065 O
0.704829 0.558637 0.448935 O
0.795171 0.441363 0.948935 O
0.204829 0.941363 0.551065 O
0.051960 0.215637 0.564181 O
0.448040 0.784363 0.064181 O
0.948040 0.715637 0.935819 O
0.551960 0.284363 0.435819 O
0.564181 0.051960 0.215637 O
0.064181 0.448040 0.784363 O
0.935819 0.948040 0.715637 O
0.435819 0.551960 0.284363 O
0.215637 0.564181 0.051960 O
0.784363 0.064181 0.448040 O
0.715637 0.935819 0.948040 O
0.284363 0.435819 0.551960 O
0.018375 0.018375 0.018375 O
0.481625 0.981625 0.518375 O
0.981625 0.518375 0.481625 O
0.518375 0.481625 0.981625 O
0.270888 0.270888 0.270888 O
0.229112 0.729112 0.770888 O
0.729112 0.770888 0.229112 O
0.770888 0.229112 0.729112 O
0.159173 0.159173 0.159173 W
0.340827 0.840827 0.659173 W
0.840827 0.659173 0.340827 W
0.659173 0.340827 0.840827 W
0.906260 0.906260 0.906260 W
0.593740 0.093740 0.406260 W
0.093740 0.406260 0.593740 W
0.406260 0.593740 0.093740 W
0.496521 0.496521 0.496521 Zr
0.003479 0.503479 0.996521 Zr
0.503479 0.996521 0.003479 Zr
0.996521 0.003479 0.503479 Zr
