Hf4 O8
1.0
5.094262 0.000000 -0.894411
0.000000 5.193447 0.000000
-0.025916 0.000000 5.360253
Hf O
4 8
direct
0.725165 0.454418 0.291371 Hf
0.274835 0.954418 0.208629 Hf
0.274835 0.545582 0.708629 Hf
0.725165 0.045582 0.791371 Hf
0.545633 0.743084 0.027040 O
0.454367 0.243084 0.472960 O
0.454367 0.256916 0.972960 O
0.545633 0.756916 0.527040 O
0.936355 0.323543 0.645490 O
0.063645 0.823543 0.854510 O
0.063645 0.676457 0.354510 O
0.936355 0.176457 0.145490 O
