Rh1
1.0
0.000000 1.945575 1.945575
1.945575 0.000000 1.945575
1.945575 1.945575 0.000000
Rh
1
direct
0.000000 0.000000 0.000000 Rh
