Cu1
1.0
0.000000 1.755909 1.755909
1.755909 0.000000 1.755909
1.755909 1.755909 0.000000
Cu
1
direct
0.000000 0.000000 0.000000 Cu
