Mo1
1.0
-1.526955 1.526955 1.526955
1.526955 -1.526955 1.526955
1.526955 1.526955 -1.526955
Mo
1
direct
0.000000 0.000000 0.000000 Mo
