Supercell by Yi Wang
1.00
         0.0000000000         7.3672500000         7.3672500000
         7.3672500000         0.0000000000         7.3672500000
         7.3672500000         7.3672500000         0.0000000000
 Ni
 64
D
   0.0000000000    0.0000000000    0.0000000000 Ni
   0.0000000000    0.0000000000    0.2500000000 Ni
   0.0000000000    0.0000000000    0.5000000000 Ni
   0.0000000000    0.0000000000    0.7500000000 Ni
   0.0000000000    0.2500000000    0.0000000000 Ni
   0.0000000000    0.2500000000    0.2500000000 Ni
   0.0000000000    0.2500000000    0.5000000000 Ni
   0.0000000000    0.2500000000    0.7500000000 Ni
   0.0000000000    0.5000000000    0.0000000000 Ni
   0.0000000000    0.5000000000    0.2500000000 Ni
   0.0000000000    0.5000000000    0.5000000000 Ni
   0.0000000000    0.5000000000    0.7500000000 Ni
   0.0000000000    0.7500000000    0.0000000000 Ni
   0.0000000000    0.7500000000    0.2500000000 Ni
   0.0000000000    0.7500000000    0.5000000000 Ni
   0.0000000000    0.7500000000    0.7500000000 Ni
   0.2500000000    0.0000000000    0.0000000000 Ni
   0.2500000000    0.0000000000    0.2500000000 Ni
   0.2500000000    0.0000000000    0.5000000000 Ni
   0.2500000000    0.0000000000    0.7500000000 Ni
   0.2500000000    0.2500000000    0.0000000000 Ni
   0.2500000000    0.2500000000    0.2500000000 Ni
   0.2500000000    0.2500000000    0.5000000000 Ni
   0.2500000000    0.2500000000    0.7500000000 Ni
   0.2500000000    0.5000000000    0.0000000000 Ni
   0.2500000000    0.5000000000    0.2500000000 Ni
   0.2500000000    0.5000000000    0.5000000000 Ni
   0.2500000000    0.5000000000    0.7500000000 Ni
   0.2500000000    0.7500000000    0.0000000000 Ni
   0.2500000000    0.7500000000    0.2500000000 Ni
   0.2500000000    0.7500000000    0.5000000000 Ni
   0.2500000000    0.7500000000    0.7500000000 Ni
   0.5000000000    0.0000000000    0.0000000000 Ni
   0.5000000000    0.0000000000    0.2500000000 Ni
   0.5000000000    0.0000000000    0.5000000000 Ni
   0.5000000000    0.0000000000    0.7500000000 Ni
   0.5000000000    0.2500000000    0.0000000000 Ni
   0.5000000000    0.2500000000    0.2500000000 Ni
   0.5000000000    0.2500000000    0.5000000000 Ni
   0.5000000000    0.2500000000    0.7500000000 Ni
   0.5000000000    0.5000000000    0.0000000000 Ni
   0.5000000000    0.5000000000    0.2500000000 Ni
   0.5000000000    0.5000000000    0.5000000000 Ni
   0.5000000000    0.5000000000    0.7500000000 Ni
   0.5000000000    0.7500000000    0.0000000000 Ni
   0.5000000000    0.7500000000    0.2500000000 Ni
   0.5000000000    0.7500000000    0.5000000000 Ni
   0.5000000000    0.7500000000    0.7500000000 Ni
   0.7500000000    0.0000000000    0.0000000000 Ni
   0.7500000000    0.0000000000    0.2500000000 Ni
   0.7500000000    0.0000000000    0.5000000000 Ni
   0.7500000000    0.0000000000    0.7500000000 Ni
   0.7500000000    0.2500000000    0.0000000000 Ni
   0.7500000000    0.2500000000    0.2500000000 Ni
   0.7500000000    0.2500000000    0.5000000000 Ni
   0.7500000000    0.2500000000    0.7500000000 Ni
   0.7500000000    0.5000000000    0.0000000000 Ni
   0.7500000000    0.5000000000    0.2500000000 Ni
   0.7500000000    0.5000000000    0.5000000000 Ni
   0.7500000000    0.5000000000    0.7500000000 Ni
   0.7500000000    0.7500000000    0.0000000000 Ni
   0.7500000000    0.7500000000    0.2500000000 Ni
   0.7500000000    0.7500000000    0.5000000000 Ni
   0.7500000000    0.7500000000    0.7500000000 Ni
