afjlf
3.6
0 .5 .5
.5 0 .5
.5 .5 0
Cu
1
D
0 0 0
