afjlf
4.256484
0 .5 .5
.5 0 .5
.5 .5 0
Mg O
1 1
D
0 0 0
.5 .5 .5
