afjlf
5.691694
0 .5 .5
.5 0 .5
.5 .5 0
Na Cl
1 1
D
0 0 0
.5 .5 .5
