Zr4 W8 O32
1.0
9.352740 0.000000 0.000000
0.000000 9.352740 0.000000
0.000000 0.000000 9.352740
O W Zr
32 8 4
direct
0.057714 0.298265 0.058692 O
0.442286 0.701735 0.558692 O
0.942286 0.798265 0.441308 O
0.557714 0.201735 0.941308 O
0.058692 0.057714 0.298265 O
0.558692 0.442286 0.701735 O
0.441308 0.942286 0.798265 O
0.941308 0.557714 0.201735 O
0.298265 0.058692 0.057714 O
0.701735 0.558692 0.442286 O
0.798265 0.441308 0.942286 O
0.201735 0.941308 0.557714 O
0.050895 0.218213 0.564009 O
0.449105 0.781787 0.064009 O
0.949105 0.718213 0.935991 O
0.550895 0.281787 0.435991 O
0.564009 0.050895 0.218213 O
0.064009 0.449105 0.781787 O
0.935991 0.949105 0.718213 O
0.435991 0.550895 0.281787 O
0.218213 0.564009 0.050895 O
0.781787 0.064009 0.449105 O
0.718213 0.935991 0.949105 O
0.281787 0.435991 0.550895 O
0.013876 0.013876 0.013876 O
0.486124 0.986124 0.513876 O
0.986124 0.513876 0.486124 O
0.513876 0.486124 0.986124 O
0.261861 0.261861 0.261861 O
0.238139 0.738139 0.761861 O
0.738139 0.761861 0.238139 O
0.761861 0.238139 0.738139 O
0.154572 0.154572 0.154572 W
0.345428 0.845428 0.654572 W
0.845428 0.654572 0.345428 W
0.654572 0.345428 0.845428 W
0.904139 0.904139 0.904139 W
0.595861 0.095861 0.404139 W
0.095861 0.404139 0.595861 W
0.404139 0.595861 0.095861 W
0.497112 0.497112 0.497112 Zr
0.002888 0.502888 0.997112 Zr
0.502888 0.997112 0.002888 Zr
0.997112 0.002888 0.502888 Zr
