Ti1
1.0
-1.626712 1.626712 1.626712
1.626712 -1.626712 1.626712
1.626712 1.626712 -1.626712
Ti
1
direct
0.000000 0.000000 0.000000 Ti
