Mo1
1.0
-1.607466 1.607466 1.607466
1.607466 -1.607466 1.607466
1.607466 1.607466 -1.607466
Mo
1
direct
0.000000 0.000000 0.000000 Mo
