Fe1
1.0
-1.422567 1.422567 1.422567
1.422567 -1.422567 1.422567
1.422567 1.422567 -1.422567
Fe
1
direct
0.000000 0.000000 0.000000 Fe
