Hf4 O8
1.0
4.791959 0.000000 -0.669237
0.000000 5.117490 0.000000
0.131665 0.000000 4.856864
Hf O
4 8
direct
0.724233 0.461732 0.284032 Hf
0.275767 0.961732 0.215968 Hf
0.275767 0.538268 0.715968 Hf
0.724233 0.038268 0.784032 Hf
0.558654 0.737910 0.007847 O
0.441346 0.237910 0.492153 O
0.441346 0.262090 0.992153 O
0.558654 0.762090 0.507847 O
0.898578 0.387405 0.705518 O
0.101422 0.887405 0.794482 O
0.101422 0.612595 0.294482 O
0.898578 0.112595 0.205518 O
