Hf4
4.481470
0 .5 .5
.5 0 .5
.5 .5 0
Hf
1
direct
0.000000 0.000000 0.000000 Hf
