afjlf
4.37956
0 .5 .5
.5 0 .5
.5 .5 0
Si C
1 1
D
0 0 0
.25 .25 .25
