Rh4
3.843898
0 .5 .5
.5 0 .5
.5 .5 0
Rh
1
direct
0.000000 0.000000 0.000000 Rh
