afjlf
5.050534
0 .5 .5
.5 0 .5
.5 .5 0
Pb
1
D
0 0 0
