afjlf
3.867
0 .5 .5
.5 0 .5
.5 .5 0
Si
2
D
0 0 0
.25 .25 .25
