Hg2
1.0
3.664958 0.000000 0.000000
-1.832479 3.173947 0.000000
0.000000 0.000000 5.789785
Hg
2
direct
0.666667 0.333333 0.750000 Hg
0.333333 0.666667 0.250000 Hg
