Zr2 Si2 O8
1.0
6.768442 0.000000 0.000000
0.000000 6.768442 0.000000
3.384221 3.384221 3.015183
O Si Zr
8 2 2
direct
0.806867 0.875760 0.386267 O
0.806867 0.237973 0.386267 O
0.737973 0.306867 0.886267 O
0.375760 0.306867 0.886267 O
0.193133 0.762027 0.613733 O
0.193133 0.124240 0.613733 O
0.262027 0.693133 0.113733 O
0.624240 0.693133 0.113733 O
0.625000 0.875000 0.750000 Si
0.375000 0.125000 0.250000 Si
0.875000 0.625000 0.250000 Zr
0.125000 0.375000 0.750000 Zr
