Os2
1.0
2.718930 0.000000 0.000000
-1.359465 2.354662 0.000000
0.000000 0.000000 4.306357
Os
2
direct
0.666667 0.333333 0.250000 Os
0.333333 0.666667 0.750000 Os
