Hf4 O8
1.0
4.879157 0.000000 -0.715889
0.000000 5.173229 0.000000
0.102499 0.000000 4.986187
Hf O
4 8
direct
0.724160 0.461360 0.286974 Hf
0.275840 0.961360 0.213026 Hf
0.275840 0.538640 0.713026 Hf
0.724160 0.038640 0.786974 Hf
0.557703 0.737854 0.009277 O
0.442297 0.237854 0.490723 O
0.442297 0.262146 0.990723 O
0.557703 0.762146 0.509277 O
0.903464 0.380970 0.699548 O
0.096536 0.880970 0.800452 O
0.096536 0.619030 0.300452 O
0.903464 0.119030 0.199548 O
