Hf2
1.0
3.205572 0.000000 0.000000
-1.602786 2.776107 0.000000
0.000000 0.000000 5.046399
Hf
2
direct
0.666667 0.333333 0.250000 Hf
0.333333 0.666667 0.750000 Hf
