Ni1
1.0
0.000000 1.781389 1.781389
1.781389 0.000000 1.781389
1.781389 1.781389 0.000000
Ni
1
direct
0.000000 0.000000 0.000000 Ni
