Hf4 O8
1.0
4.974166 0.000000 -0.847316
0.000000 5.125519 0.000000
-0.001973 0.000000 5.210682
Hf O
4 8
direct
0.722275 0.457291 0.292161 Hf
0.277725 0.957291 0.207839 Hf
0.277725 0.542709 0.707839 Hf
0.722275 0.042709 0.792161 Hf
0.553115 0.741826 0.018744 O
0.446885 0.241826 0.481256 O
0.446885 0.258174 0.981256 O
0.553115 0.758174 0.518744 O
0.928539 0.338167 0.660090 O
0.071461 0.838167 0.839910 O
0.071461 0.661833 0.339910 O
0.928539 0.161833 0.160090 O
