Supercell by Yi Wang
1.00
         0.0000000000         7.0500000000         7.0500000000
         7.0500000000         0.0000000000         7.0500000000
         7.0500000000         7.0500000000         0.0000000000
 Ni
 64
D
   0.00000000    0.00000000    0.00000000 Ni
   0.00000000    0.00000000    0.25000000 Ni
   0.00000000    0.00000000    0.50000000 Ni
   0.00000000    0.00000000    0.75000000 Ni
   0.00000000    0.25000000    0.00000000 Ni
   0.00000000    0.25000000    0.25000000 Ni
   0.00000000    0.25000000    0.50000000 Ni
   0.00000000    0.25000000    0.75000000 Ni
   0.00000000    0.50000000    0.00000000 Ni
   0.00000000    0.50000000    0.25000000 Ni
   0.00000000    0.50000000    0.50000000 Ni
   0.00000000    0.50000000    0.75000000 Ni
   0.00000000    0.75000000    0.00000000 Ni
   0.00000000    0.75000000    0.25000000 Ni
   0.00000000    0.75000000    0.50000000 Ni
   0.00000000    0.75000000    0.75000000 Ni
   0.25000000    0.00000000    0.00000000 Ni
   0.25000000    0.00000000    0.25000000 Ni
   0.25000000    0.00000000    0.50000000 Ni
   0.25000000    0.00000000    0.75000000 Ni
   0.25000000    0.25000000    0.00000000 Ni
   0.25000000    0.25000000    0.25000000 Ni
   0.25000000    0.25000000    0.50000000 Ni
   0.25000000    0.25000000    0.75000000 Ni
   0.25000000    0.50000000    0.00000000 Ni
   0.25000000    0.50000000    0.25000000 Ni
   0.25000000    0.50000000    0.50000000 Ni
   0.25000000    0.50000000    0.75000000 Ni
   0.25000000    0.75000000    0.00000000 Ni
   0.25000000    0.75000000    0.25000000 Ni
   0.25000000    0.75000000    0.50000000 Ni
   0.25000000    0.75000000    0.75000000 Ni
   0.50000000    0.00000000    0.00000000 Ni
   0.50000000    0.00000000    0.25000000 Ni
   0.50000000    0.00000000    0.50000000 Ni
   0.50000000    0.00000000    0.75000000 Ni
   0.50000000    0.25000000    0.00000000 Ni
   0.50000000    0.25000000    0.25000000 Ni
   0.50000000    0.25000000    0.50000000 Ni
   0.50000000    0.25000000    0.75000000 Ni
   0.50000000    0.50000000    0.00000000 Ni
   0.50000000    0.50000000    0.25000000 Ni
   0.50000000    0.50000000    0.50000000 Ni
   0.50000000    0.50000000    0.75000000 Ni
   0.50000000    0.75000000    0.00000000 Ni
   0.50000000    0.75000000    0.25000000 Ni
   0.50000000    0.75000000    0.50000000 Ni
   0.50000000    0.75000000    0.75000000 Ni
   0.75000000    0.00000000    0.00000000 Ni
   0.75000000    0.00000000    0.25000000 Ni
   0.75000000    0.00000000    0.50000000 Ni
   0.75000000    0.00000000    0.75000000 Ni
   0.75000000    0.25000000    0.00000000 Ni
   0.75000000    0.25000000    0.25000000 Ni
   0.75000000    0.25000000    0.50000000 Ni
   0.75000000    0.25000000    0.75000000 Ni
   0.75000000    0.50000000    0.00000000 Ni
   0.75000000    0.50000000    0.25000000 Ni
   0.75000000    0.50000000    0.50000000 Ni
   0.75000000    0.50000000    0.75000000 Ni
   0.75000000    0.75000000    0.00000000 Ni
   0.75000000    0.75000000    0.25000000 Ni
   0.75000000    0.75000000    0.50000000 Ni
   0.75000000    0.75000000    0.75000000 Ni
