Ti1 Pb1 O3
1.0
3.976524 0.000000 0.000000
0.000000 3.976524 0.000000
0.000000 0.000000 3.976524
Ti Pb O
1 1 3
direct
0.500000 0.500000 0.500000 Ti
0.000000 0.000000 0.000000 Pb
0.500000 0.000000 0.500000 O
0.500000 0.500000 0.000000 O
0.000000 0.500000 0.500000 O
