Al4 O6
1.0
2.402500 1.387100 4.372100
-2.402500 1.387100 4.372100
0.000000 -2.774200 4.372100
Al O
4 6
direct
0.647900 0.647900 0.647900 Al
0.852100 0.852100 0.852100 Al
0.352100 0.352100 0.352100 Al
0.147900 0.147900 0.147900 Al
0.943850 0.556150 0.250000 O
0.250000 0.943850 0.556150 O
0.556150 0.250000 0.943850 O
0.056150 0.443850 0.750000 O
0.750000 0.056150 0.443850 O
0.443850 0.750000 0.056150 O
