Hf4 O8
1.0
5.128144 0.000000 -0.887070
0.000000 5.242429 0.000000
-0.012587 0.000000 5.393410
Hf O
4 8
direct
0.725347 0.455763 0.291844 Hf
0.274653 0.955763 0.208156 Hf
0.274653 0.544237 0.708156 Hf
0.725347 0.044237 0.791844 Hf
0.547710 0.742664 0.026163 O
0.452290 0.242664 0.473837 O
0.452290 0.257336 0.973837 O
0.547710 0.757336 0.526163 O
0.933809 0.327888 0.650145 O
0.066191 0.827888 0.849855 O
0.066191 0.672112 0.349855 O
0.933809 0.172112 0.150145 O
