Ti2
1.0
2.902937 0.000000 0.000000
-1.451469 2.514017 0.000000
0.000000 0.000000 4.595285
Ti
2
direct
0.666667 0.333333 0.750000 Ti
0.333333 0.666667 0.250000 Ti
