Ba1 Ti1 O3
1.0
2.877505 1.661282 2.369760
-2.877505 1.661282 2.369760
0.000000 -3.322599 2.369714
Ba Ti O
1 1 3
direct
0.998625 0.998625 0.998625 Ba
0.483794 0.483794 0.483788 Ti
0.514765 0.026542 0.514766 O
0.514764 0.514764 0.026544 O
0.026542 0.514765 0.514766 O
