Al1
1.0
0.000000 1.949923 1.949923
1.949923 0.000000 1.949923
1.949923 1.949923 0.000000
Al
1
direct
0.000000 0.000000 0.000000 Al
