Ti1 Pb1 O3
1.0
3.859077 0.000000 0.000000
0.000000 3.859077 0.000000
0.000000 0.000000 4.650635
Ti Pb O
1 1 3
direct
0.500000 0.500000 0.520313 Ti
0.000000 0.000000 0.968898 Pb
0.500000 0.500000 0.143094 O
0.000000 0.500000 0.626797 O
0.500000 0.000000 0.626797 O
