Os2
1.0
2.782665 0.000000 0.000000
-1.391332 2.409858 0.000000
0.000000 0.000000 4.394890
Os
2
direct
0.666667 0.333333 0.250000 Os
0.333333 0.666667 0.750000 Os
