Ti1 Pb1 O3
1.0
3.861215 0.000000 0.000000
0.000000 3.861215 0.000000
0.000000 0.000000 4.627061
Ti Pb O
1 1 3
direct
0.500000 0.500000 0.520923 Ti
0.000000 0.000000 0.969212 Pb
0.500000 0.500000 0.142449 O
0.000000 0.500000 0.626658 O
0.500000 0.000000 0.626658 O
