Hf2
1.0
3.082452 0.000000 0.000000
-1.541226 2.669482 0.000000
0.000000 0.000000 4.911823
Hf
2
direct
0.666667 0.333333 0.250000 Hf
0.333333 0.666667 0.750000 Hf
