Cu8 W8
1.0
-3.829615 3.829615 7.659230
-3.829615 7.659230 3.829615
-7.659230 3.829615 3.829615
Cu W
8 8
direct
0.258526 0.749434 0.749434 Cu
0.503065 0.503065 0.503065 Cu
0.500566 0.500566 0.991474 Cu
0.500566 0.991474 0.500566 Cu
0.749434 0.258526 0.749434 Cu
0.749434 0.749434 0.258526 Cu
0.746935 0.746935 0.746935 Cu
0.991474 0.500566 0.500566 Cu
0.249516 0.249516 0.249516 W
0.251223 0.251223 0.743378 W
0.251223 0.743378 0.251223 W
0.506622 0.998777 0.998777 W
0.743378 0.251223 0.251223 W
0.998777 0.506622 0.998777 W
0.998777 0.998777 0.506622 W
0.000484 0.000484 0.000484 W
