  O4Si1Zr1 Group 141 SENTRYNUMBER 1406609 JACGAR,1992,25, ,519,523
 1.000000000000
 6.608000000000 0.000000000000 0.000000000000
 0.000000000000 6.608000000000 0.000000000000
 3.304000000000 3.304000000000 3.001000000000
 O Si Zr
 8 2 2
Direct
    0.8046000000     0.8701000000     0.3908000000 O
    0.8046000000     0.2391000000     0.3908000000 O
    0.7391000000     0.3046000000     0.8908000000 O
    0.3701000000     0.3046000000     0.8908000000 O
    0.1954000000     0.7609000000     0.6092000000 O
    0.1954000000     0.1299000000     0.6092000000 O
    0.2609000000     0.6954000000     0.1092000000 O
    0.6299000000     0.6954000000     0.1092000000 O
    0.6250000000     0.8750000000     0.7500000000 Si
    0.3750000000     0.1250000000     0.2500000000 Si
    0.8750000000     0.6250000000     0.2500000000 Zr
    0.1250000000     0.3750000000     0.7500000000 Zr
