Zr4 W8 O32
1.0
9.452245 0.000000 0.000000
0.000000 9.452245 0.000000
0.000000 0.000000 9.452245
O W Zr
32 8 4
direct
0.057897 0.298226 0.059728 O
0.442103 0.701774 0.559728 O
0.942103 0.798226 0.440272 O
0.557897 0.201774 0.940272 O
0.059728 0.057897 0.298226 O
0.559728 0.442103 0.701774 O
0.440272 0.942103 0.798226 O
0.940272 0.557897 0.201774 O
0.298226 0.059728 0.057897 O
0.701774 0.559728 0.442103 O
0.798226 0.440272 0.942103 O
0.201774 0.940272 0.557897 O
0.052449 0.218170 0.563955 O
0.447551 0.781830 0.063955 O
0.947551 0.718170 0.936045 O
0.552449 0.281830 0.436045 O
0.563955 0.052449 0.218170 O
0.063955 0.447551 0.781830 O
0.936045 0.947551 0.718170 O
0.436045 0.552449 0.281830 O
0.218170 0.563955 0.052449 O
0.781830 0.063955 0.447551 O
0.718170 0.936045 0.947551 O
0.281830 0.436045 0.552449 O
0.011644 0.011644 0.011644 O
0.488356 0.988356 0.511644 O
0.988356 0.511644 0.488356 O
0.511644 0.488356 0.988356 O
0.259208 0.259208 0.259208 O
0.240792 0.740792 0.759208 O
0.740792 0.759208 0.240792 O
0.759208 0.240792 0.740792 O
0.153284 0.153284 0.153284 W
0.346716 0.846716 0.653284 W
0.846716 0.653284 0.346716 W
0.653284 0.346716 0.846716 W
0.902773 0.902773 0.902773 W
0.597227 0.097227 0.402773 W
0.097227 0.402773 0.597227 W
0.402773 0.597227 0.097227 W
0.498063 0.498063 0.498063 Zr
0.001937 0.501937 0.998063 Zr
0.501937 0.998063 0.001937 Zr
0.998063 0.001937 0.501937 Zr
