Zr4 W8 O32
1.0
9.251072 0.000000 0.000000
0.000000 9.251072 0.000000
0.000000 0.000000 9.251072
O W Zr
32 8 4
direct
0.057117 0.298034 0.057950 O
0.442883 0.701966 0.557950 O
0.942883 0.798034 0.442050 O
0.557117 0.201966 0.942050 O
0.057950 0.057117 0.298034 O
0.557950 0.442883 0.701966 O
0.442050 0.942883 0.798034 O
0.942050 0.557117 0.201966 O
0.298034 0.057950 0.057117 O
0.701966 0.557950 0.442883 O
0.798034 0.442050 0.942883 O
0.201966 0.942050 0.557117 O
0.049726 0.218012 0.564361 O
0.450274 0.781988 0.064361 O
0.950274 0.718012 0.935639 O
0.549726 0.281988 0.435639 O
0.564361 0.049726 0.218012 O
0.064361 0.450274 0.781988 O
0.935639 0.950274 0.718012 O
0.435639 0.549726 0.281988 O
0.218012 0.564361 0.049726 O
0.781988 0.064361 0.450274 O
0.718012 0.935639 0.950274 O
0.281988 0.435639 0.549726 O
0.015908 0.015908 0.015908 O
0.484092 0.984092 0.515908 O
0.984092 0.515908 0.484092 O
0.515908 0.484092 0.984092 O
0.264820 0.264820 0.264820 O
0.235180 0.735180 0.764820 O
0.735180 0.764820 0.235180 O
0.764820 0.235180 0.735180 O
0.156121 0.156121 0.156121 W
0.343879 0.843879 0.656121 W
0.843879 0.656121 0.343879 W
0.656121 0.343879 0.843879 W
0.905331 0.905331 0.905331 W
0.594669 0.094669 0.405331 W
0.094669 0.405331 0.594669 W
0.405331 0.594669 0.094669 W
0.496382 0.496382 0.496382 Zr
0.003618 0.503618 0.996382 Zr
0.503618 0.996382 0.003618 Zr
0.996382 0.003618 0.503618 Zr
