Li15 V10 O25                            
 1.045000000000
 2.003960495141 0.000000000000 -6.011881485423
 4.007920990282 -4.007920990282 4.007920990282
 -8.015841980564 -6.011881485423 -2.003960495141
   Li   V    O 
    15    10    25
Direct
  0.0399999999999991  0.9200000000000017  0.7199999999999989
  0.1199999999999974  0.7599999999999980  0.1599999999999966
  0.1599999999999966  0.6799999999999997  0.8800000000000026
  0.2800000000000011  0.4399999999999977  0.0399999999999991
  0.3200000000000003  0.3599999999999994  0.7599999999999980
  0.4399999999999977  0.1199999999999974  0.9200000000000017
  0.5200000000000031  0.9600000000000009  0.3599999999999994
  0.5600000000000023  0.8800000000000026  0.0799999999999983
  0.6400000000000006  0.7199999999999989  0.5200000000000031
  0.6799999999999997  0.6400000000000006  0.2400000000000020
  0.7599999999999980  0.4799999999999969  0.6799999999999997
  0.8400000000000034  0.3200000000000003  0.1199999999999974
  0.8800000000000026  0.2400000000000020  0.8400000000000034
  0.9600000000000009  0.0799999999999983  0.2800000000000011
  0.0000000000000000  0.0000000000000000  0.0000000000000000
  0.0799999999999983  0.8400000000000034  0.4399999999999977
  0.2000000000000028  0.6000000000000014  0.6000000000000014
  0.2400000000000020  0.5200000000000031  0.3200000000000003
  0.3599999999999994  0.2800000000000011  0.4799999999999969
  0.3999999999999986  0.2000000000000028  0.2000000000000028
  0.4799999999999969  0.0399999999999991  0.6400000000000006
  0.6000000000000014  0.7999999999999972  0.7999999999999972
  0.7199999999999989  0.5600000000000023  0.9600000000000009
  0.7999999999999972  0.3999999999999986  0.3999999999999986
  0.9200000000000017  0.1599999999999966  0.5600000000000023
  0.0399999999999991  0.4200000000000017  0.7199999999999989
  0.0799999999999983  0.3400000000000034  0.4399999999999977
  0.1199999999999974  0.2599999999999980  0.1599999999999966
  0.1599999999999966  0.1799999999999997  0.8800000000000026
  0.2000000000000028  0.1000000000000014  0.6000000000000014
  0.2400000000000020  0.0200000000000031  0.3200000000000003
  0.2800000000000011  0.9399999999999977  0.0399999999999991
  0.9200000000000017  0.6599999999999966  0.5600000000000023
  0.9600000000000009  0.5799999999999983  0.2800000000000011
  0.0000000000000000  0.5000000000000000  0.0000000000000000
  0.7999999999999972  0.8999999999999986  0.3999999999999986
  0.8400000000000034  0.8200000000000003  0.1199999999999974
  0.8800000000000026  0.7400000000000020  0.8400000000000034
  0.6799999999999997  0.1400000000000006  0.2400000000000020
  0.7199999999999989  0.0600000000000023  0.9600000000000009
  0.7599999999999980  0.9799999999999969  0.6799999999999997
  0.5600000000000023  0.3800000000000026  0.0799999999999983
  0.6000000000000014  0.2999999999999972  0.7999999999999972
  0.6400000000000006  0.2199999999999989  0.5200000000000031
  0.4399999999999977  0.6199999999999974  0.9200000000000017
  0.4799999999999969  0.5399999999999991  0.6400000000000006
  0.5200000000000031  0.4600000000000009  0.3599999999999994
  0.3999999999999986  0.7000000000000028  0.2000000000000028
  0.3200000000000003  0.8599999999999994  0.7599999999999980
  0.3599999999999994  0.7800000000000011  0.4799999999999969
 
  0.00000000E+00  0.00000000E+00  0.00000000E+00
  0.00000000E+00  0.00000000E+00  0.00000000E+00
  0.00000000E+00  0.00000000E+00  0.00000000E+00
  0.00000000E+00  0.00000000E+00  0.00000000E+00
  0.00000000E+00  0.00000000E+00  0.00000000E+00
  0.00000000E+00  0.00000000E+00  0.00000000E+00
  0.00000000E+00  0.00000000E+00  0.00000000E+00
  0.00000000E+00  0.00000000E+00  0.00000000E+00
  0.00000000E+00  0.00000000E+00  0.00000000E+00
  0.00000000E+00  0.00000000E+00  0.00000000E+00
  0.00000000E+00  0.00000000E+00  0.00000000E+00
  0.00000000E+00  0.00000000E+00  0.00000000E+00
  0.00000000E+00  0.00000000E+00  0.00000000E+00
  0.00000000E+00  0.00000000E+00  0.00000000E+00
  0.00000000E+00  0.00000000E+00  0.00000000E+00
  0.00000000E+00  0.00000000E+00  0.00000000E+00
  0.00000000E+00  0.00000000E+00  0.00000000E+00
  0.00000000E+00  0.00000000E+00  0.00000000E+00
  0.00000000E+00  0.00000000E+00  0.00000000E+00
  0.00000000E+00  0.00000000E+00  0.00000000E+00
  0.00000000E+00  0.00000000E+00  0.00000000E+00
  0.00000000E+00  0.00000000E+00  0.00000000E+00
  0.00000000E+00  0.00000000E+00  0.00000000E+00
  0.00000000E+00  0.00000000E+00  0.00000000E+00
  0.00000000E+00  0.00000000E+00  0.00000000E+00
  0.00000000E+00  0.00000000E+00  0.00000000E+00
  0.00000000E+00  0.00000000E+00  0.00000000E+00
  0.00000000E+00  0.00000000E+00  0.00000000E+00
  0.00000000E+00  0.00000000E+00  0.00000000E+00
  0.00000000E+00  0.00000000E+00  0.00000000E+00
  0.00000000E+00  0.00000000E+00  0.00000000E+00
  0.00000000E+00  0.00000000E+00  0.00000000E+00
  0.00000000E+00  0.00000000E+00  0.00000000E+00
  0.00000000E+00  0.00000000E+00  0.00000000E+00
  0.00000000E+00  0.00000000E+00  0.00000000E+00
  0.00000000E+00  0.00000000E+00  0.00000000E+00
  0.00000000E+00  0.00000000E+00  0.00000000E+00
  0.00000000E+00  0.00000000E+00  0.00000000E+00
  0.00000000E+00  0.00000000E+00  0.00000000E+00
  0.00000000E+00  0.00000000E+00  0.00000000E+00
  0.00000000E+00  0.00000000E+00  0.00000000E+00
  0.00000000E+00  0.00000000E+00  0.00000000E+00
  0.00000000E+00  0.00000000E+00  0.00000000E+00
  0.00000000E+00  0.00000000E+00  0.00000000E+00
  0.00000000E+00  0.00000000E+00  0.00000000E+00
  0.00000000E+00  0.00000000E+00  0.00000000E+00
  0.00000000E+00  0.00000000E+00  0.00000000E+00
  0.00000000E+00  0.00000000E+00  0.00000000E+00
  0.00000000E+00  0.00000000E+00  0.00000000E+00
  0.00000000E+00  0.00000000E+00  0.00000000E+00
