Hf2
1.0
3.278954 0.000000 0.000000
-1.639477 2.839657 0.000000
0.000000 0.000000 5.144591
Hf
2
direct
0.666667 0.333333 0.250000 Hf
0.333333 0.666667 0.750000 Hf
