Mg2
1.0
3.190848 0.000000 0.000000
-1.595425 2.763355 0.000000
0.000000 0.000000 5.185433
Mg
2
direct
0.666667 0.333333 0.750000 Mg
0.333333 0.666667 0.250000 Mg
