Mg2
1.0
3.077026 0.000000 0.000000
-1.538515 2.664784 0.000000
0.000000 0.000000 5.018537
Mg
2
direct
0.666667 0.333333 0.750000 Mg
0.333333 0.666667 0.250000 Mg
