Cu8 W8
1.0
-3.998162 3.998162 7.996325
-3.998162 7.996325 3.998162
-7.996325 3.998162 3.998162
Cu W
8 8
direct
0.244148 0.757510 0.757510 Cu
0.504965 0.504965 0.504965 Cu
0.492490 0.492490 0.005852 Cu
0.492490 0.005852 0.492490 Cu
0.757510 0.244148 0.757510 Cu
0.757510 0.757510 0.244148 Cu
0.745035 0.745035 0.745035 Cu
0.005852 0.492490 0.492490 Cu
0.239654 0.239654 0.239654 W
0.254574 0.254574 0.744150 W
0.254574 0.744150 0.254574 W
0.505850 0.995426 0.995426 W
0.744150 0.254574 0.254574 W
0.995426 0.505850 0.995426 W
0.995426 0.995426 0.505850 W
0.010346 0.010346 0.010346 W
