Si2
1.0
3.349399 0.000000 1.933776
1.116466 3.157843 1.933776
0.000000 0.000000 3.867552
Ge
2
direct
0.000000 0.000000 0.000000 Si
0.250000 0.250000 0.250000 Si
