Hg2
1.0
3.625685 0.000000 0.000000
-1.812842 3.139934 0.000000
0.000000 0.000000 5.731024
Hg
2
direct
0.666667 0.333333 0.750000 Hg
0.333333 0.666667 0.250000 Hg
