Si12 N16
1.0
6.848695 -3.954096 0.000000
0.000000 7.908191 0.000000
0.000000 0.000000 5.724052
N Si
16 12
direct
0.044756 0.390167 0.970183 N
0.609833 0.654590 0.970183 N
0.345410 0.955244 0.970183 N
0.390167 0.044756 0.470183 N
0.654590 0.609833 0.470183 N
0.955244 0.345410 0.470183 N
0.310260 0.319798 0.210470 N
0.680202 0.990462 0.210470 N
0.009538 0.689740 0.210470 N
0.319798 0.310260 0.710470 N
0.990462 0.680202 0.710470 N
0.689740 0.009538 0.710470 N
0.333333 0.666667 0.289253 N
0.666667 0.333333 0.789253 N
0.000000 0.000000 0.954160 N
0.000000 0.000000 0.454160 N
0.082937 0.512803 0.242357 Si
0.487197 0.570132 0.242357 Si
0.429868 0.917063 0.242357 Si
0.512803 0.082937 0.742357 Si
0.570132 0.487197 0.742357 Si
0.917063 0.429868 0.742357 Si
0.166347 0.253081 0.954218 Si
0.746919 0.913265 0.954218 Si
0.086735 0.833653 0.954218 Si
0.253081 0.166347 0.454218 Si
0.913265 0.746919 0.454218 Si
0.833653 0.086735 0.454218 Si
