Zr2 Si2 O8
1.0
6.344951 0.000000 0.000001
0.000000 6.344951 0.000001
3.172477 3.172477 2.894999
O Si Zr
8 2 2
direct
0.804610 0.867574 0.390781 O
0.804610 0.241645 0.390781 O
0.741645 0.304610 0.890781 O
0.367574 0.304610 0.890781 O
0.195390 0.758355 0.609219 O
0.195390 0.132426 0.609219 O
0.258355 0.695390 0.109219 O
0.632426 0.695390 0.109219 O
0.625000 0.875000 0.750000 Si
0.375000 0.125000 0.250000 Si
0.875000 0.625000 0.250000 Zr
0.125000 0.375000 0.750000 Zr
