Ti1
1.0
-1.679222 1.679222 1.679222
1.679222 -1.679222 1.679222
1.679222 1.679222 -1.679222
Ti
1
direct
0.000000 0.000000 0.000000 Ti
