Al4 O6
1.0
2.476791 1.429979 4.525174
-2.476791 1.429979 4.525174
0.000000 -2.859955 4.525174
Al O
4 6
direct
0.647736 0.647736 0.647736 Al
0.852264 0.852264 0.852264 Al
0.352264 0.352264 0.352264 Al
0.147736 0.147736 0.147736 Al
0.944866 0.555134 0.250000 O
0.250000 0.944866 0.555134 O
0.555134 0.250000 0.944866 O
0.055134 0.444866 0.750000 O
0.750000 0.055134 0.444866 O
0.444866 0.750000 0.055134 O
