Cu8 W8
1.0
-3.739473 3.739473 7.478945
-3.739473 7.478945 3.739473
-7.478945 3.739473 3.739473
Cu W
8 8
direct
0.267189 0.743352 0.743352 Cu
0.501465 0.501465 0.501465 Cu
0.506648 0.506648 0.982811 Cu
0.506648 0.982811 0.506648 Cu
0.743352 0.267189 0.743352 Cu
0.743352 0.743352 0.267189 Cu
0.748535 0.748535 0.748535 Cu
0.982811 0.506648 0.506648 Cu
0.255266 0.255266 0.255266 W
0.249008 0.249008 0.744434 W
0.249008 0.744434 0.249008 W
0.505566 0.000992 0.000992 W
0.744434 0.249008 0.249008 W
0.000992 0.505566 0.000992 W
0.000992 0.000992 0.505566 W
0.994734 0.994734 0.994734 W
