Hf4 O8
1.0
5.143313 0.000000 -0.926969
0.000000 5.243312 0.000000
-0.048726 0.000000 5.427153
Hf O
4 8
direct
0.726990 0.449435 0.287934 Hf
0.273010 0.949435 0.212066 Hf
0.273010 0.550565 0.712066 Hf
0.726990 0.050565 0.787934 Hf
0.539517 0.741218 0.036867 O
0.460483 0.241218 0.463133 O
0.460483 0.258782 0.963133 O
0.539517 0.758782 0.536867 O
0.938650 0.321899 0.641893 O
0.061350 0.821899 0.858107 O
0.061350 0.678101 0.358107 O
0.938650 0.178101 0.141893 O
