YW POSCAR from Ymode for irrep A1
 1.00
     2.8773     1.6612     2.3700
    -2.8773     1.6612     2.3700
     0.0000    -3.3225     2.3700
   Ba   Ti    O
    1    1    3
D
    0.99793    0.99793    0.99793
    0.48356    0.48356    0.48356
    0.51538    0.02624    0.51538
    0.51538    0.51538    0.02624
    0.02624    0.51538    0.51538
