YW POSCAR from Ymode for irrep A1g
 1.00
     0.0000     4.0854     4.0854
     4.0854     0.0000     4.0854
     4.0854     4.0854     0.0000
   Mg   Al    O
    2    4    8
D
    0.37500    0.37500    0.37500
    0.62500    0.62500    0.62500
    0.00000    0.00000    0.00000
    0.50000    0.00000    0.00000
    0.00000    0.50000    0.00000
    0.00000    0.00000    0.50000
    0.76363    0.76363    0.76363
    0.20911    0.76363    0.76363
    0.76363    0.20911    0.76363
    0.76363    0.76363    0.20911
    0.23637    0.23637    0.23637
    0.79089    0.23637    0.23637
    0.23637    0.79089    0.23637
    0.23637    0.23637    0.79089
