YW POSCAR from Ymode for irrep A1g
 1.00
     2.4025     1.3871     4.3721
    -2.4025     1.3871     4.3721
     0.0000    -2.7742     4.3721
   Al    O
    4    6
D
    0.64790    0.64790    0.64790
    0.85210    0.85210    0.85210
    0.35210    0.35210    0.35210
    0.14790    0.14790    0.14790
    0.94385    0.55615    0.25000
    0.25000    0.94385    0.55615
    0.55615    0.25000    0.94385
    0.05615    0.44385    0.75000
    0.75000    0.05615    0.44385
    0.44385    0.75000    0.05615
