Al1
1.0
0.000000 1.973056 1.973056
1.973056 0.000000 1.973056
1.973056 1.973056 0.000000
Al
1
direct
0.000000 0.000000 0.000000 Al
