Ti3
1.0
4.522960 0.000000 0.000000
-2.261479 3.916998 0.000000
0.000000 0.000000 2.799947
Ti
3
direct
0.000000 0.000000 0.000000 Ti
0.666667 0.333333 0.500000 Ti
0.333333 0.666667 0.500000 Ti
