Ni1
1.0
0.000000 1.854223 1.854223
1.854223 0.000000 1.854223
1.854223 1.854223 0.000000
Ni
1
direct
0.000000 0.000000 0.000000 Ni
