Fe1
1.0
-1.453502 1.453502 1.453502
1.453502 -1.453502 1.453502
1.453502 1.453502 -1.453502
Fe
1
direct
0.000000 0.000000 0.000000 Fe
