W1
1.0
-1.645152 1.645152 1.645152
1.645152 -1.645152 1.645152
1.645152 1.645152 -1.645152
W
1
direct
0.000000 0.000000 0.000000 W
