Zr2 Si2 O8
1.0
6.510436 0.000000 0.000000
0.000000 6.510436 0.000000
3.255219 3.255219 2.953377
O Si Zr
8 2 2
direct
0.805090 0.869903 0.389822 O
0.805090 0.240275 0.389822 O
0.740275 0.305090 0.889822 O
0.369903 0.305090 0.889822 O
0.194910 0.759725 0.610178 O
0.194910 0.130097 0.610178 O
0.259725 0.694910 0.110178 O
0.630097 0.694910 0.110178 O
0.625000 0.875000 0.750000 Si
0.375000 0.125000 0.250000 Si
0.875000 0.625000 0.250000 Zr
0.125000 0.375000 0.750000 Zr
