Cu8 W8
1.0
-3.873137 3.873137 7.746274
-3.873137 7.746274 3.873137
-7.746274 3.873137 3.873137
Cu W
8 8
direct
0.253569 0.752570 0.752570 Cu
0.503605 0.503605 0.503605 Cu
0.497430 0.497430 0.996431 Cu
0.497430 0.996431 0.497430 Cu
0.752570 0.253569 0.752570 Cu
0.752570 0.752570 0.253569 Cu
0.746395 0.746395 0.746395 Cu
0.996431 0.497430 0.497430 Cu
0.246913 0.246913 0.246913 W
0.251983 0.251983 0.743123 W
0.251983 0.743123 0.251983 W
0.506877 0.998017 0.998017 W
0.743123 0.251983 0.251983 W
0.998017 0.506877 0.998017 W
0.998017 0.998017 0.506877 W
0.003087 0.003087 0.003087 W
