Mg2
1.0
3.203028 0.000000 0.000000
-1.601514 2.773903 0.000000
0.000000 0.000000 5.126691
Mg
2
direct
0.666667 0.333333 0.750000 Mg
0.333333 0.666667 0.250000 Mg
