Os2
1.0
2.758516 0.000000 0.000000
-1.379258 2.388945 0.000000
0.000000 0.000000 4.356799
Os
2
direct
0.666667 0.333333 0.250000 Os
0.333333 0.666667 0.750000 Os
