Hg2
1.0
3.579844 0.000000 0.000000
-1.789922 3.100236 0.000000
0.000000 0.000000 5.734710
Hg
2
direct
0.666667 0.333333 0.750000 Hg
0.333333 0.666667 0.250000 Hg
