Hf2
1.0
3.198486 0.000000 0.000000
-1.599243 2.769970 0.000000
0.000000 0.000000 5.075185
Hf
2
direct
0.666667 0.333333 0.250000 Hf
0.333333 0.666667 0.750000 Hf
