Mg9
1.0
3.211246 0.000000 0.000000
-1.605623 2.781021 0.000000
0.000000 0.000000 22.926732
Mg
9
direct
0.000000 0.000000 0.000000 Mg
0.666667 0.333333 0.111125 Mg
0.000000 0.000000 0.222208 Mg
0.666667 0.333333 0.333333 Mg
0.333333 0.666667 0.444459 Mg
0.666667 0.333333 0.555541 Mg
0.333333 0.666667 0.666667 Mg
0.000000 0.000000 0.777792 Mg
0.333333 0.666667 0.888875 Mg
