Si12 N16
1.0
6.623175 -3.823890 0.000000
0.000000 7.647781 0.000000
0.000000 0.000000 5.546703
N Si
16 12
direct
0.045203 0.388784 0.973423 N
0.611216 0.656420 0.973423 N
0.343580 0.954797 0.973423 N
0.388784 0.045203 0.473423 N
0.656420 0.611216 0.473423 N
0.954797 0.343580 0.473423 N
0.317573 0.318690 0.203099 N
0.681310 0.998883 0.203099 N
0.001117 0.682427 0.203099 N
0.318690 0.317573 0.703099 N
0.998883 0.681310 0.703099 N
0.682427 0.001117 0.703099 N
0.333333 0.666667 0.305621 N
0.666667 0.333333 0.805621 N
0.000000 0.000000 0.949138 N
0.000000 0.000000 0.449138 N
0.082029 0.511183 0.246228 Si
0.488817 0.570845 0.246228 Si
0.429155 0.917971 0.246228 Si
0.511183 0.082029 0.746228 Si
0.570845 0.488817 0.746228 Si
0.917971 0.429155 0.746228 Si
0.168161 0.253583 0.950695 Si
0.746417 0.914578 0.950695 Si
0.085422 0.831839 0.950695 Si
0.253583 0.168161 0.450695 Si
0.914578 0.746417 0.450695 Si
0.831839 0.085422 0.450695 Si
