Mg2 Al4 O8
1.0
0.000000 3.989384 3.989384
3.989384 0.000000 3.989384
3.989384 3.989384 0.000000
Mg Al O
2 4 8
direct
0.375000 0.375000 0.375000 Mg
0.625000 0.625000 0.625000 Mg
0.000000 0.000000 0.000000 Al
0.500000 0.000000 0.000000 Al
0.000000 0.500000 0.000000 Al
0.000000 0.000000 0.500000 Al
0.762717 0.762717 0.762717 O
0.211847 0.762717 0.762717 O
0.762717 0.211847 0.762717 O
0.762717 0.762717 0.211847 O
0.237283 0.237283 0.237283 O
0.788153 0.237283 0.237283 O
0.237283 0.788153 0.237283 O
0.237283 0.237283 0.788153 O
