Mo1
1.0
-1.498138 1.498138 1.498138
1.498138 -1.498138 1.498138
1.498138 1.498138 -1.498138
Mo
1
direct
0.000000 0.000000 0.000000 Mo
