  Ni1 Group 225 SENTRYNUMBER 261637 ZEMTAE,1971,62, ,42,45
 0.940000000000
 0.000000000000 1.762500000000 1.762500000000
 1.762500000000 0.000000000000 1.762500000000
 1.762500000000 1.762500000000 0.000000000000
 Ni
 1
Direct
    0.0000000000     0.0000000000     0.0000000000 Ni
