Hf1
1.0
0.000000 2.189791 2.189791
2.189791 0.000000 2.189791
2.189791 2.189791 0.000000
Hf
1
direct
0.000000 0.000000 0.000000 Hf
