W1
1.0
-1.538707 1.538707 1.538707
1.538707 -1.538707 1.538707
1.538707 1.538707 -1.538707
W
1
direct
0.000000 0.000000 0.000000 W
