Hf4 O8
1.0
5.332738 0.000000 -1.391794
0.000000 5.332187 0.000000
-0.502834 0.000000 5.718340
Hf O
4 8
direct
0.746802 0.412648 0.254066 Hf
0.253198 0.912648 0.245934 Hf
0.253198 0.587352 0.745934 Hf
0.746802 0.087352 0.754066 Hf
0.489252 0.703090 0.113086 O
0.510748 0.203090 0.386914 O
0.510748 0.296910 0.886914 O
0.489252 0.796910 0.613086 O
0.972117 0.312561 0.625727 O
0.027883 0.812561 0.874273 O
0.027883 0.687439 0.374273 O
0.972117 0.187439 0.125727 O
