Mg2
1.0
3.115368 0.000000 0.000000
-1.557685 2.697988 0.000000
0.000000 0.000000 5.077095
Mg
2
direct
0.666667 0.333333 0.750000 Mg
0.333333 0.666667 0.250000 Mg
