Cu1
1.0
0.000000 1.931413 1.931413
1.931413 0.000000 1.931413
1.931413 1.931413 0.000000
Cu
1
direct
0.000000 0.000000 0.000000 Cu
