Ta1
1.0
-1.714531 1.714531 1.714531
1.714531 -1.714531 1.714531
1.714531 1.714531 -1.714531
Ta
1
direct
0.000000 0.000000 0.000000 Ta
