Cu8 W8
1.0
-3.785080 3.785080 7.570161
-3.785080 7.570161 3.785080
-7.570161 3.785080 3.785080
Cu W
8 8
direct
0.262201 0.746928 0.746928 Cu
0.502171 0.502171 0.502171 Cu
0.503072 0.503072 0.987799 Cu
0.503072 0.987799 0.503072 Cu
0.746928 0.262201 0.746928 Cu
0.746928 0.746928 0.262201 Cu
0.747829 0.747829 0.747829 Cu
0.987799 0.503072 0.503072 Cu
0.252343 0.252343 0.252343 W
0.250133 0.250133 0.743628 W
0.250133 0.743628 0.250133 W
0.506372 0.999867 0.999867 W
0.743628 0.250133 0.250133 W
0.999867 0.506372 0.999867 W
0.999867 0.999867 0.506372 W
0.997657 0.997657 0.997657 W
