Ni1
1.0
0.000000 1.820831 1.820831
1.820831 0.000000 1.820831
1.820831 1.820831 0.000000
Ni
1
direct
0.000000 0.000000 0.000000 Ni
