Si12 N16
1.0
6.700220 -3.868373 0.000000
0.000000 7.736747 0.000000
0.000000 0.000000 5.606764
N Si
16 12
direct
0.044976 0.389293 0.972026 N
0.610707 0.655683 0.972026 N
0.344317 0.955024 0.972026 N
0.389293 0.044976 0.472026 N
0.655683 0.610707 0.472026 N
0.955024 0.344317 0.472026 N
0.314621 0.319102 0.206062 N
0.680898 0.995519 0.206062 N
0.004481 0.685379 0.206062 N
0.319102 0.314621 0.706062 N
0.995519 0.680898 0.706062 N
0.685379 0.004481 0.706062 N
0.333333 0.666667 0.299296 N
0.666667 0.333333 0.799296 N
0.000000 0.000000 0.951334 N
0.000000 0.000000 0.451334 N
0.082308 0.511726 0.244661 Si
0.488274 0.570581 0.244661 Si
0.429419 0.917692 0.244661 Si
0.511726 0.082308 0.744661 Si
0.570581 0.488274 0.744661 Si
0.917692 0.429419 0.744661 Si
0.167392 0.253380 0.952073 Si
0.746620 0.914012 0.952073 Si
0.085988 0.832608 0.952073 Si
0.253380 0.167392 0.452073 Si
0.914012 0.746620 0.452073 Si
0.832608 0.085988 0.452073 Si
