Ba1 Ti1 O3
1.0
2.955995 1.706622 2.470039
-2.955995 1.706622 2.470039
0.000000 -3.413374 2.470057
Ba Ti O
1 1 3
direct
0.990438 0.990438 0.990435 Ba
0.474219 0.474219 0.474225 Ti
0.517713 0.038406 0.517714 O
0.517714 0.517714 0.038402 O
0.038406 0.517713 0.517714 O
