Hg2
1.0
3.442302 0.000000 0.000000
-1.721151 2.981121 0.000000
0.000000 0.000000 5.537533
Hg
2
direct
0.666667 0.333333 0.750000 Hg
0.333333 0.666667 0.250000 Hg
