Hf2
1.0
3.313167 0.000000 0.000000
-1.656583 2.869287 0.000000
0.000000 0.000000 5.196353
Hf
2
direct
0.666667 0.333333 0.250000 Hf
0.333333 0.666667 0.750000 Hf
