Mg2
1.0
3.301244 0.000000 0.000000
-1.650623 2.858961 0.000000
0.000000 0.000000 5.328863
Mg
2
direct
0.666667 0.333333 0.750000 Mg
0.333333 0.666667 0.250000 Mg
