W1
1.0
-1.557474 1.557474 1.557474
1.557474 -1.557474 1.557474
1.557474 1.557474 -1.557474
W
1
direct
0.000000 0.000000 0.000000 W
