Mo1
1.0
-1.656958 1.656958 1.656958
1.656958 -1.656958 1.656958
1.656958 1.656958 -1.656958
Mo
1
direct
0.000000 0.000000 0.000000 Mo
