Ti2
1.0
3.035744 0.000000 0.000000
-1.517873 2.629032 0.000000
0.000000 0.000000 4.781599
Ti
2
direct
0.666667 0.333333 0.750000 Ti
0.333333 0.666667 0.250000 Ti
