afjlf
3.55
0 .5 .5
.5 0 .5
.5 .5 0
Ni
1
D
0 0 0
