Hf2
1.0
3.242923 0.000000 0.000000
-1.621461 2.808454 0.000000
0.000000 0.000000 5.095182
Hf
2
direct
0.666667 0.333333 0.250000 Hf
0.333333 0.666667 0.750000 Hf
