Mg2 Al4 O8
1.0
0.000000 3.941314 3.941314
3.941314 0.000000 3.941314
3.941314 3.941314 0.000000
Mg Al O
2 4 8
direct
0.375000 0.375000 0.375000 Mg
0.625000 0.625000 0.625000 Mg
0.000000 0.000000 0.000000 Al
0.500000 0.000000 0.000000 Al
0.000000 0.500000 0.000000 Al
0.000000 0.000000 0.500000 Al
0.762382 0.762382 0.762382 O
0.212854 0.762382 0.762382 O
0.762382 0.212854 0.762382 O
0.762382 0.762382 0.212854 O
0.237618 0.237618 0.237618 O
0.787146 0.237618 0.237618 O
0.237618 0.787146 0.237618 O
0.237618 0.237618 0.787146 O
