Mo1
1.0
-1.632587 1.632587 1.632587
1.632587 -1.632587 1.632587
1.632587 1.632587 -1.632587
Mo
1
direct
0.000000 0.000000 0.000000 Mo
