Hf4 O8
1.0
5.037735 0.000000 -0.874355
0.000000 5.150598 0.000000
-0.016295 0.000000 5.293028
Hf O
4 8
direct
0.723760 0.456305 0.292092 Hf
0.276240 0.956305 0.207908 Hf
0.276240 0.543695 0.707908 Hf
0.723760 0.043695 0.792092 Hf
0.549362 0.743083 0.022433 O
0.450638 0.243083 0.477567 O
0.450638 0.256917 0.977567 O
0.549362 0.756917 0.522433 O
0.934288 0.327086 0.649893 O
0.065712 0.827086 0.850107 O
0.065712 0.672914 0.350107 O
0.934288 0.172914 0.149893 O
