Cu8 W8
1.0
-4.037355 4.037355 8.074710
-4.037355 8.074710 4.037355
-8.074710 4.037355 4.037355
Cu W
8 8
direct
0.242762 0.757349 0.757349 Cu
0.504727 0.504727 0.504727 Cu
0.492651 0.492651 0.007238 Cu
0.492651 0.007238 0.492651 Cu
0.757349 0.242762 0.757349 Cu
0.757349 0.757349 0.242762 Cu
0.745273 0.745273 0.745273 Cu
0.007238 0.492651 0.492651 Cu
0.237448 0.237448 0.237448 W
0.255168 0.255168 0.745236 W
0.255168 0.745236 0.255168 W
0.504764 0.994832 0.994832 W
0.745236 0.255168 0.255168 W
0.994832 0.504764 0.994832 W
0.994832 0.994832 0.504764 W
0.012552 0.012552 0.012552 W
