Hf4 O8
1.0
4.838939 0.000000 -0.740593
0.000000 5.123199 0.000000
0.074202 0.000000 4.989795
Hf O
4 8
direct
0.722257 0.459892 0.288572 Hf
0.277743 0.959892 0.211428 Hf
0.277743 0.540108 0.711428 Hf
0.722257 0.040108 0.788572 Hf
0.558237 0.738143 0.011222 O
0.441763 0.238143 0.488778 O
0.441763 0.261857 0.988778 O
0.558237 0.761857 0.511222 O
0.907919 0.373862 0.691371 O
0.092081 0.873862 0.808629 O
0.092081 0.626138 0.308629 O
0.907919 0.126138 0.191371 O
