Si12 N16
1.0
6.464571 -3.732315 0.000000
0.000012 7.464654 0.000000
0.000000 0.000000 5.420664
N Si
16 12
direct
0.045785 0.387276 0.977930 N
0.612724 0.658509 0.977930 N
0.341491 0.954215 0.977930 N
0.387276 0.045785 0.477930 N
0.658509 0.612724 0.477930 N
0.954215 0.341491 0.477930 N
0.325954 0.317631 0.194991 N
0.682369 0.008323 0.194991 N
0.991677 0.674046 0.194991 N
0.317631 0.325954 0.694991 N
0.008323 0.682369 0.694991 N
0.674046 0.991677 0.694991 N
0.333333 0.666667 0.320974 N
0.666667 0.333333 0.820974 N
0.000000 0.000000 0.941636 N
0.000000 0.000000 0.441636 N
0.081512 0.510216 0.250901 Si
0.489784 0.571295 0.250901 Si
0.428705 0.918488 0.250901 Si
0.510216 0.081512 0.750901 Si
0.571295 0.489784 0.750901 Si
0.918488 0.428705 0.750901 Si
0.170336 0.254136 0.947006 Si
0.745864 0.916199 0.947006 Si
0.083801 0.829664 0.947006 Si
0.254136 0.170336 0.447006 Si
0.916199 0.745864 0.447006 Si
0.829664 0.083801 0.447006 Si
