Hf1
1.0
-1.750916 1.750916 1.750916
1.750916 -1.750916 1.750916
1.750916 1.750916 -1.750916
Hf
1
direct
0.000000 0.000000 0.000000 Hf
