Al1
1.0
0.000000 2.104559 2.104559
2.104559 0.000000 2.104559
2.104559 2.104559 0.000000
Al
1
direct
0.000000 0.000000 0.000000 Al
