Mg2 Al4 O8
1.0
0.000000 4.127056 4.127056
4.127056 0.000000 4.127056
4.127056 4.127056 0.000000
Mg Al O
2 4 8
direct
0.375000 0.375000 0.375000 Mg
0.625000 0.625000 0.625000 Mg
0.000000 0.000000 0.000000 Al
0.500000 0.000000 0.000000 Al
0.000000 0.500000 0.000000 Al
0.000000 0.000000 0.500000 Al
0.763763 0.763763 0.763763 O
0.208710 0.763763 0.763763 O
0.763763 0.208710 0.763763 O
0.763763 0.763763 0.208710 O
0.236237 0.236237 0.236237 O
0.791290 0.236237 0.236237 O
0.236237 0.791290 0.236237 O
0.236237 0.236237 0.791290 O
