Fe1
1.0
-1.550986 1.550986 1.550986
1.550986 -1.550986 1.550986
1.550986 1.550986 -1.550986
Fe
1
direct
0.000000 0.000000 0.000000 Fe
