Zr2 Si2 O8
1.0
6.860861 0.000000 0.000000
0.000000 6.860861 0.000000
3.430431 3.430431 3.026200
O Si Zr
8 2 2
direct
0.807872 0.878628 0.384258 O
0.807872 0.237114 0.384258 O
0.737114 0.307872 0.884258 O
0.378628 0.307872 0.884258 O
0.192128 0.762886 0.615742 O
0.192128 0.121372 0.615742 O
0.262886 0.692128 0.115742 O
0.621372 0.692128 0.115742 O
0.625000 0.875000 0.750000 Si
0.375000 0.125000 0.250000 Si
0.875000 0.625000 0.250000 Zr
0.125000 0.375000 0.750000 Zr
