Al4 O6
1.0
2.350906 1.357295 4.261756
-2.350906 1.357295 4.261756
0.000000 -2.714591 4.261756
Al O
4 6
direct
0.647858 0.647858 0.647858 Al
0.852142 0.852142 0.852142 Al
0.352142 0.352142 0.352142 Al
0.147858 0.147858 0.147858 Al
0.943228 0.556772 0.250000 O
0.250000 0.943228 0.556772 O
0.556772 0.250000 0.943228 O
0.056772 0.443228 0.750000 O
0.750000 0.056772 0.443228 O
0.443228 0.750000 0.056772 O
