Ti3
1.0
4.627899 0.000000 0.000000
-2.313949 4.007878 0.000000
0.000000 0.000000 2.858849
Ti
3
direct
0.000000 0.000000 0.000000 Ti
0.666667 0.333333 0.500000 Ti
0.333333 0.666667 0.500000 Ti
