Si12 N16
1.0
6.775505 -3.911839 0.000000
0.000000 7.823679 0.000000
0.000000 0.000000 5.665621
N Si
16 12
direct
0.044832 0.389733 0.970977 N
0.610267 0.655099 0.970977 N
0.344901 0.955168 0.970977 N
0.389733 0.044832 0.470977 N
0.655099 0.610267 0.470977 N
0.955168 0.344901 0.470977 N
0.312214 0.319479 0.208473 N
0.680521 0.992735 0.208473 N
0.007265 0.687786 0.208473 N
0.319479 0.312214 0.708473 N
0.992735 0.680521 0.708473 N
0.687786 0.007265 0.708473 N
0.333333 0.666667 0.293930 N
0.666667 0.333333 0.793930 N
0.000000 0.000000 0.952928 N
0.000000 0.000000 0.452928 N
0.082612 0.512264 0.243414 Si
0.487736 0.570347 0.243414 Si
0.429653 0.917388 0.243414 Si
0.512264 0.082612 0.743414 Si
0.570347 0.487736 0.743414 Si
0.917388 0.429653 0.743414 Si
0.166797 0.253203 0.953216 Si
0.746797 0.913594 0.953216 Si
0.086406 0.833203 0.953216 Si
0.253203 0.166797 0.453216 Si
0.913594 0.746797 0.453216 Si
0.833203 0.086406 0.453216 Si
