Ti1 Pb1 O3
1.0
3.854364 0.000000 0.000000
0.000000 3.854364 0.000000
0.000000 0.000000 4.662015
Ti Pb O
1 1 3
direct
0.500000 0.500000 0.519836 Ti
0.000000 0.000000 0.968467 Pb
0.500000 0.500000 0.143648 O
0.000000 0.500000 0.626974 O
0.500000 0.000000 0.626974 O
