Ti2
1.0
2.937977 0.000000 0.000000
-1.468989 2.544363 0.000000
0.000000 0.000000 4.641027
Ti
2
direct
0.666667 0.333333 0.750000 Ti
0.333333 0.666667 0.250000 Ti
