Cu1
1.0
0.000000 1.755781 1.755781
1.755781 0.000000 1.755781
1.755781 1.755781 0.000000
Cu
1
direct
0.000000 0.000000 0.000000 Cu
