Ti1 Pb1 O3
1.0
3.857897 0.000000 0.000000
0.000000 3.857897 0.000000
0.000000 0.000000 4.498362
Ti Pb O
1 1 3
direct
0.500000 0.500000 0.524202 Ti
0.000000 0.000000 0.979444 Pb
0.500000 0.500000 0.132175 O
0.000000 0.500000 0.625039 O
0.500000 0.000000 0.625039 O
