Ti2
1.0
2.866369 0.000000 0.000000
-1.433184 2.482348 0.000000
0.000000 0.000000 4.550757
Ti
2
direct
0.666667 0.333333 0.750000 Ti
0.333333 0.666667 0.250000 Ti
