Ti1 Pb1 O3
1.0
3.846722 0.000000 0.000000
0.000000 3.846722 0.000000
0.000000 0.000000 4.836573
Ti Pb O
1 1 3
direct
0.500000 0.500000 0.516686 Ti
0.000000 0.000000 0.955065 Pb
0.500000 0.500000 0.155388 O
0.000000 0.500000 0.629380 O
0.500000 0.000000 0.629380 O
