Zr2 Si2 O8
1.0
6.679992 0.000000 0.000000
0.000000 6.679992 0.000000
3.339996 3.339996 2.998822
O Si Zr
8 2 2
direct
0.806072 0.873370 0.387857 O
0.806072 0.238772 0.387857 O
0.738772 0.306072 0.887857 O
0.373370 0.306072 0.887857 O
0.193928 0.761228 0.612143 O
0.193928 0.126630 0.612143 O
0.261228 0.693928 0.112143 O
0.626630 0.693928 0.112143 O
0.625000 0.875000 0.750000 Si
0.375000 0.125000 0.250000 Si
0.875000 0.625000 0.250000 Zr
0.125000 0.375000 0.750000 Zr
