Cu8 W8
1.0
-3.957362 3.957362 7.914724
-3.957362 7.914724 3.957362
-7.914724 3.957362 3.957362
Cu W
8 8
direct
0.246247 0.756896 0.756896 Cu
0.504709 0.504709 0.504709 Cu
0.493104 0.493104 0.003753 Cu
0.493104 0.003753 0.493104 Cu
0.756896 0.246247 0.756896 Cu
0.756896 0.756896 0.246247 Cu
0.745291 0.745291 0.745291 Cu
0.003753 0.493104 0.493104 Cu
0.241779 0.241779 0.241779 W
0.253803 0.253803 0.743816 W
0.253803 0.743816 0.253803 W
0.506184 0.996197 0.996197 W
0.743816 0.253803 0.253803 W
0.996197 0.506184 0.996197 W
0.996197 0.996197 0.506184 W
0.008221 0.008221 0.008221 W
