Hg2
1.0
3.541772 0.000000 0.000000
-1.770886 3.067264 0.000000
0.000000 0.000000 5.618332
Hg
2
direct
0.666667 0.333333 0.750000 Hg
0.333333 0.666667 0.250000 Hg
