Pb1
1.0
0.000000 2.462808 2.462808
2.462808 0.000000 2.462808
2.462808 2.462808 0.000000
Pb
1
direct
0.000000 0.000000 0.000000 Pb
