Mg2 Al4 O8
1.0
0.000000 4.213967 4.213967
4.213967 0.000000 4.213967
4.213967 4.213967 0.000000
Mg Al O
2 4 8
direct
0.375000 0.375000 0.375000 Mg
0.625000 0.625000 0.625000 Mg
0.000000 0.000000 0.000000 Al
0.500000 0.000000 0.000000 Al
0.000000 0.500000 0.000000 Al
0.000000 0.000000 0.500000 Al
0.764519 0.764519 0.764519 O
0.206442 0.764519 0.764519 O
0.764519 0.206442 0.764519 O
0.764519 0.764519 0.206442 O
0.235481 0.235481 0.235481 O
0.793558 0.235481 0.235481 O
0.235481 0.793558 0.235481 O
0.235481 0.235481 0.793558 O
