Hf2
1.0
3.165424 0.000000 0.000000
-1.582712 2.741338 0.000000
0.000000 0.000000 5.002713
Hf
2
direct
0.666667 0.333333 0.250000 Hf
0.333333 0.666667 0.750000 Hf
