Mo1
1.0
-1.581535 1.581535 1.581535
1.581535 -1.581535 1.581535
1.581535 1.581535 -1.581535
Mo
1
direct
0.000000 0.000000 0.000000 Mo
