Si12 N16
1.0
6.920213 -3.995387 0.000000
0.000000 7.990774 0.000000
0.000000 0.000000 5.781548
N Si
16 12
direct
0.044732 0.390569 0.969594 N
0.609431 0.654164 0.969594 N
0.345836 0.955268 0.969594 N
0.390569 0.044732 0.469594 N
0.654164 0.609431 0.469594 N
0.955268 0.345836 0.469594 N
0.308623 0.320097 0.212137 N
0.679903 0.988526 0.212137 N
0.011474 0.691377 0.212137 N
0.320097 0.308623 0.712137 N
0.988526 0.679903 0.712137 N
0.691377 0.011474 0.712137 N
0.333333 0.666667 0.285208 N
0.666667 0.333333 0.785208 N
0.000000 0.000000 0.955129 N
0.000000 0.000000 0.455129 N
0.083285 0.513339 0.241435 Si
0.486661 0.569944 0.241435 Si
0.430056 0.916715 0.241435 Si
0.513339 0.083285 0.741435 Si
0.569944 0.486661 0.741435 Si
0.916715 0.430056 0.741435 Si
0.165994 0.252975 0.955086 Si
0.747025 0.913019 0.955086 Si
0.086981 0.834006 0.955086 Si
0.252975 0.165994 0.455086 Si
0.913019 0.747025 0.455086 Si
0.834006 0.086981 0.455086 Si
