afjlf
4.05
0 .5 .5
.5 0 .5
.5 .5 0
Al
1
D
0 0 0
