Hf1
1.0
0.000000 2.240735 2.240735
2.240735 0.000000 2.240735
2.240735 2.240735 0.000000
Hf
1
direct
0.000000 0.000000 0.000000 Hf
