Ti1 Pb1 O3
1.0
3.898372 0.000000 0.000000
0.000000 3.898372 0.000000
0.000000 0.000000 4.101614
Ti Pb O
1 1 3
direct
0.500000 0.500000 0.542472 Ti
0.000000 0.000000 0.013580 Pb
0.500000 0.500000 0.103691 O
0.000000 0.500000 0.613078 O
0.500000 0.000000 0.613078 O
