Os2
1.0
2.686153 0.000000 0.000000
-1.343076 2.326276 0.000000
0.000000 0.000000 4.259954
Os
2
direct
0.666667 0.333333 0.250000 Os
0.333333 0.666667 0.750000 Os
