Pb1
1.0
0.000000 2.601452 2.601452
2.601452 0.000000 2.601452
2.601452 2.601452 0.000000
Pb
1
direct
0.000000 0.000000 0.000000 Pb
