Os2
1.0
2.844384 0.000000 0.000000
-1.422192 2.463309 0.000000
0.000000 0.000000 4.477603
Os
2
direct
0.666667 0.333333 0.250000 Os
0.333333 0.666667 0.750000 Os
