Al4 O6
1.0
2.452601 1.416012 4.475034
-2.452601 1.416012 4.475034
0.000000 -2.832023 4.475033
Al O
4 6
direct
0.647773 0.647773 0.647773 Al
0.852227 0.852227 0.852227 Al
0.352227 0.352227 0.352227 Al
0.147773 0.147773 0.147773 Al
0.944531 0.555469 0.250000 O
0.250000 0.944531 0.555469 O
0.555469 0.250000 0.944531 O
0.055469 0.444531 0.750000 O
0.750000 0.055469 0.444531 O
0.444531 0.750000 0.055469 O
