Hf1
1.0
-1.809322 1.809322 1.809322
1.809322 -1.809322 1.809322
1.809322 1.809322 -1.809322
Hf
1
direct
0.000000 0.000000 0.000000 Hf
