Fe1
1.0
-1.406582 1.406582 1.406582
1.406582 -1.406582 1.406582
1.406582 1.406582 -1.406582
Fe
1
direct
0.000000 0.000000 0.000000 Fe
