Fe1
1.0
-1.510863 1.510863 1.510863
1.510863 -1.510863 1.510863
1.510863 1.510863 -1.510863
Fe
1
direct
0.000000 0.000000 0.000000 Fe
