System = phonon of Zr bcc - omiga

NWRITE = 0

IBRION = 6

EDIFF=1.d-6
NFREE=4

ISPIN = 2
PREC = A
MAGMOM=64*1
ISMEAR = 1
NSW=1
LREAL=Auto
