Cu8 W8
1.0
-3.915702 3.915702 7.831405
-3.915702 7.831405 3.915702
-7.831405 3.915702 3.915702
Cu W
8 8
direct
0.252143 0.753441 0.753441 Cu
0.503249 0.503249 0.503249 Cu
0.496559 0.496559 0.997857 Cu
0.496559 0.997857 0.496559 Cu
0.753441 0.252143 0.753441 Cu
0.753441 0.753441 0.252143 Cu
0.746751 0.746751 0.746751 Cu
0.997857 0.496559 0.496559 Cu
0.244742 0.244742 0.244742 W
0.252750 0.252750 0.743265 W
0.252750 0.743265 0.252750 W
0.506735 0.997250 0.997250 W
0.743265 0.252750 0.252750 W
0.997250 0.506735 0.997250 W
0.997250 0.997250 0.506735 W
0.005258 0.005258 0.005258 W
