Os2
1.0
2.751072 0.000000 0.000000
-1.375536 2.382498 0.000000
0.000000 0.000000 4.351365
Os
2
direct
0.666667 0.333333 0.250000 Os
0.333333 0.666667 0.750000 Os
