Al1
1.0
0.000000 2.052735 2.052735
2.052735 0.000000 2.052735
2.052735 2.052735 0.000000
Al
1
direct
0.000000 0.000000 0.000000 Al
