Supercell by Yi Wang
1.00
        -3.4850000000         3.4850000000         6.9700000000
        -3.4850000000         6.9700000000         3.4850000000
        -6.9700000000         3.4850000000         3.4850000000
 Cu W
 8 8
D
   0.2500000000    0.7500000000    0.7500000000 
   0.5000000000    0.5000000000    0.5000000000 
   0.5000000000    0.5000000000    0.0000000000 
   0.5000000000    0.0000000000    0.5000000000 
   0.7500000000    0.2500000000    0.7500000000 
   0.7500000000    0.7500000000    0.2500000000 
   0.7500000000    0.7500000000    0.7500000000 
   0.0000000000    0.5000000000    0.5000000000 
   0.2500000000    0.2500000000    0.2500000000 
   0.2500000000    0.2500000000    0.7500000000 
   0.2500000000    0.7500000000    0.2500000000 
   0.5000000000    0.0000000000    0.0000000000 
   0.7500000000    0.2500000000    0.2500000000 
   0.0000000000    0.5000000000    0.0000000000 
   0.0000000000    0.0000000000    0.5000000000 
   0.0000000000    0.0000000000    0.0000000000
