W1
1.0
-1.575799 1.575799 1.575799
1.575799 -1.575799 1.575799
1.575799 1.575799 -1.575799
W
1
direct
0.000000 0.000000 0.000000 W
